&CONTROL
  calculation  = "scf"
  prefix       = "lego"
  pseudo_dir   = "."
  outdir       = "."
  verbosity="high"
/
&SYSTEM
  ibrav     = 0
  celldm(1) = 5.888386
  nat       = 546
  ntyp      = 1
  vdw_corr = "grimme-d2"
  ecutwfc   = 60
  ecutrho = 600
/
&ELECTRONS
  conv_thr    = 1.D-8
  mixing_beta = 0.3D0
/
&IONS
 ion_dynamics="bfgs"
/

CELL_PARAMETERS {alat}
-0.5	9.5262794	0.0
-8.5	4.330127	0.0
0.0	0.0	10.0

ATOMIC_SPECIES
xxxxxxx
xxxxxxx
xxxxxx

ATOMIC_POSITIONS {Angstrom}
S1  -26.486  11.6936522975  4.34440811
S2  -26.486  11.6936522975  7.43463952
S1  -28.044  14.3921874439  4.34440811
S2  -28.044  14.3921874439  7.43463952
S1  -21.812  8.99511715107  4.34440811
S2  -21.812  8.99511715107  7.43463952
S1  -23.37  11.6936522975  4.34440811
S2  -23.37  11.6936522975  7.43463952
Mo  -24.928  10.7941405856  5.889523815
S1  -24.928  14.3921874439  4.34440811
S2  -24.928  14.3921874439  7.43463952
Mo  -26.486  13.492675732  5.889523815
S1  -26.486  17.0907225903  4.34440811
S2  -26.486  17.0907225903  7.43463952
Mo  -28.044  16.1912108784  5.889523815
S1  -28.044  19.7892577367  4.34440811
S2  -28.044  19.7892577367  7.43463952
S1  -29.602  22.4877928831  4.34440811
S2  -29.602  22.4877928831  7.43463952
S1  -17.138  6.29658200467  4.34440811
S2  -17.138  6.29658200467  7.43463952
S1  -18.696  8.99511715107  4.34440811
S2  -18.696  8.99511715107  7.43463952
Mo  -20.254  8.0956054392  5.889523815
S1  -20.254  11.6936522975  4.34440811
S2  -20.254  11.6936522975  7.43463952
Mo  -21.812  10.7941405856  5.889523815
S1  -21.812  14.3921874439  4.34440811
S2  -21.812  14.3921874439  7.43463952
Mo  -23.37  13.492675732  5.889523815
S1  -23.37  17.0907225903  4.34440811
S2  -23.37  17.0907225903  7.43463952
Mo  -24.928  16.1912108784  5.889523815
S1  -24.928  19.7892577367  4.34440811
S2  -24.928  19.7892577367  7.43463952
Mo  -26.486  18.8897460248  5.889523815
S1  -26.486  22.4877928831  4.34440811
S2  -26.486  22.4877928831  7.43463952
Mo  -28.044  21.5882811712  5.889523815
S1  -28.044  25.1863280295  4.34440811
S2  -28.044  25.1863280295  7.43463952
Mo  -29.602  24.2868163176  5.889523815
S1  -29.602  27.8848631759  4.34440811
S2  -29.602  27.8848631759  7.43463952
S1  -12.464  3.59804685827  4.34440811
S2  -12.464  3.59804685827  7.43463952
S1  -14.022  6.29658200467  4.34440811
S2  -14.022  6.29658200467  7.43463952
Mo  -15.58  5.3970702928  5.889523815
S1  -15.58  8.99511715107  4.34440811
S2  -15.58  8.99511715107  7.43463952
Mo  -17.138  8.0956054392  5.889523815
S1  -17.138  11.6936522975  4.34440811
S2  -17.138  11.6936522975  7.43463952
Mo  -18.696  10.7941405856  5.889523815
S1  -18.696  14.3921874439  4.34440811
S2  -18.696  14.3921874439  7.43463952
Mo  -20.254  13.492675732  5.889523815
S1  -20.254  17.0907225903  4.34440811
S2  -20.254  17.0907225903  7.43463952
Mo  -21.812  16.1912108784  5.889523815
S1  -21.812  19.7892577367  4.34440811
S2  -21.812  19.7892577367  7.43463952
Mo  -23.37  18.8897460248  5.889523815
S1  -23.37  22.4877928831  4.34440811
S2  -23.37  22.4877928831  7.43463952
Mo  -24.928  21.5882811712  5.889523815
S1  -24.928  25.1863280295  4.34440811
S2  -24.928  25.1863280295  7.43463952
Mo  -26.486  24.2868163176  5.889523815
S1  -26.486  27.8848631759  4.34440811
S2  -26.486  27.8848631759  7.43463952
Mo  -28.044  26.985351464  5.889523815
S1  -28.044  30.5833983223  4.34440811
S2  -28.044  30.5833983223  7.43463952
Mo  -29.602  29.6838866104  5.889523815
S1  -29.602  33.2819334687  4.34440811
S2  -29.602  33.2819334687  7.43463952
S1  -9.348  3.59804685827  4.34440811
S2  -9.348  3.59804685827  7.43463952
Mo  -10.906  2.6985351464  5.889523815
S1  -10.906  6.29658200467  4.34440811
S2  -10.906  6.29658200467  7.43463952
Mo  -12.464  5.3970702928  5.889523815
S1  -12.464  8.99511715107  4.34440811
S2  -12.464  8.99511715107  7.43463952
Mo  -14.022  8.0956054392  5.889523815
S1  -14.022  11.6936522975  4.34440811
S2  -14.022  11.6936522975  7.43463952
Mo  -15.58  10.7941405856  5.889523815
S1  -15.58  14.3921874439  4.34440811
S2  -15.58  14.3921874439  7.43463952
Mo  -17.138  13.492675732  5.889523815
S1  -17.138  17.0907225903  4.34440811
S2  -17.138  17.0907225903  7.43463952
Mo  -18.696  16.1912108784  5.889523815
S1  -18.696  19.7892577367  4.34440811
S2  -18.696  19.7892577367  7.43463952
Mo  -20.254  18.8897460248  5.889523815
S1  -20.254  22.4877928831  4.34440811
S2  -20.254  22.4877928831  7.43463952
Mo  -21.812  21.5882811712  5.889523815
S1  -21.812  25.1863280295  4.34440811
S2  -21.812  25.1863280295  7.43463952
Mo  -23.37  24.2868163176  5.889523815
S1  -23.37  27.8848631759  4.34440811
S2  -23.37  27.8848631759  7.43463952
Mo  -24.928  26.985351464  5.889523815
S1  -24.928  30.5833983223  4.34440811
S2  -24.928  30.5833983223  7.43463952
Mo  -26.486  29.6838866104  5.889523815
S1  -26.486  33.2819334687  4.34440811
S2  -26.486  33.2819334687  7.43463952
Mo  -28.044  32.3824217568  5.889523815
S1  -28.044  35.9804686151  4.34440811
S2  -28.044  35.9804686151  7.43463952
Mo  -29.602  35.0809569032  5.889523815
S1  -29.602  38.6790037615  4.34440811
S2  -29.602  38.6790037615  7.43463952
S1  -4.674  0.89951171187  4.34440811
S2  -4.674  0.89951171187  7.43463952
S1  -6.232  3.59804685827  4.34440811
S2  -6.232  3.59804685827  7.43463952
Mo  -7.79  2.6985351464  5.889523815
S1  -7.79  6.29658200467  4.34440811
S2  -7.79  6.29658200467  7.43463952
Mo  -9.348  5.3970702928  5.889523815
S1  -9.348  8.99511715107  4.34440811
S2  -9.348  8.99511715107  7.43463952
Mo  -10.906  8.0956054392  5.889523815
S1  -10.906  11.6936522975  4.34440811
S2  -10.906  11.6936522975  7.43463952
Mo  -12.464  10.7941405856  5.889523815
S1  -12.464  14.3921874439  4.34440811
S2  -12.464  14.3921874439  7.43463952
Mo  -14.022  13.492675732  5.889523815
S1  -14.022  17.0907225903  4.34440811
S2  -14.022  17.0907225903  7.43463952
Mo  -15.58  16.1912108784  5.889523815
S1  -15.58  19.7892577367  4.34440811
S2  -15.58  19.7892577367  7.43463952
Mo  -17.138  18.8897460248  5.889523815
S1  -17.138  22.4877928831  4.34440811
S2  -17.138  22.4877928831  7.43463952
Mo  -18.696  21.5882811712  5.889523815
S1  -18.696  25.1863280295  4.34440811
S2  -18.696  25.1863280295  7.43463952
Mo  -20.254  24.2868163176  5.889523815
S1  -20.254  27.8848631759  4.34440811
S2  -20.254  27.8848631759  7.43463952
Mo  -21.812  26.985351464  5.889523815
S1  -21.812  30.5833983223  4.34440811
S2  -21.812  30.5833983223  7.43463952
Mo  -23.37  29.6838866104  5.889523815
S1  -23.37  33.2819334687  4.34440811
S2  -23.37  33.2819334687  7.43463952
Mo  -24.928  32.3824217568  5.889523815
S1  -24.928  35.9804686151  4.34440811
S2  -24.928  35.9804686151  7.43463952
Mo  -26.486  35.0809569032  5.889523815
S1  -26.486  38.6790037615  4.34440811
S2  -26.486  38.6790037615  7.43463952
Mo  -28.044  37.7794920496  5.889523815
Mo  -29.602  40.478027196  5.889523815
Mo  -3.116  0.0  5.889523815
S1  -3.116  3.59804685827  4.34440811
S2  -3.116  3.59804685827  7.43463952
Mo  -4.674  2.6985351464  5.889523815
S1  -4.674  6.29658200467  4.34440811
S2  -4.674  6.29658200467  7.43463952
Mo  -6.232  5.3970702928  5.889523815
S1  -6.232  8.99511715107  4.34440811
S2  -6.232  8.99511715107  7.43463952
Mo  -7.79  8.0956054392  5.889523815
S1  -7.79  11.6936522975  4.34440811
S2  -7.79  11.6936522975  7.43463952
Mo  -9.348  10.7941405856  5.889523815
S1  -9.348  14.3921874439  4.34440811
S2  -9.348  14.3921874439  7.43463952
Mo  -10.906  13.492675732  5.889523815
S1  -10.906  17.0907225903  4.34440811
S2  -10.906  17.0907225903  7.43463952
Mo  -12.464  16.1912108784  5.889523815
S1  -12.464  19.7892577367  4.34440811
S2  -12.464  19.7892577367  7.43463952
Mo  -14.022  18.8897460248  5.889523815
S1  -14.022  22.4877928831  4.34440811
S2  -14.022  22.4877928831  7.43463952
Mo  -15.58  21.5882811712  5.889523815
S1  -15.58  25.1863280295  4.34440811
S2  -15.58  25.1863280295  7.43463952
Mo  -17.138  24.2868163176  5.889523815
S1  -17.138  27.8848631759  4.34440811
S2  -17.138  27.8848631759  7.43463952
Mo  -18.696  26.985351464  5.889523815
S1  -18.696  30.5833983223  4.34440811
S2  -18.696  30.5833983223  7.43463952
Mo  -20.254  29.6838866104  5.889523815
S1  -20.254  33.2819334687  4.34440811
S2  -20.254  33.2819334687  7.43463952
Mo  -21.812  32.3824217568  5.889523815
S1  -21.812  35.9804686151  4.34440811
S2  -21.812  35.9804686151  7.43463952
Mo  -23.37  35.0809569032  5.889523815
Mo  -24.928  37.7794920496  5.889523815
Mo  -3.116  5.3970702928  5.889523815
Mo  -4.674  8.0956054392  5.889523815
S1  -4.674  11.6936522975  4.34440811
S2  -4.674  11.6936522975  7.43463952
Mo  -6.232  10.7941405856  5.889523815
S1  -6.232  14.3921874439  4.34440811
S2  -6.232  14.3921874439  7.43463952
Mo  -7.79  13.492675732  5.889523815
S1  -7.79  17.0907225903  4.34440811
S2  -7.79  17.0907225903  7.43463952
Mo  -9.348  16.1912108784  5.889523815
S1  -9.348  19.7892577367  4.34440811
S2  -9.348  19.7892577367  7.43463952
Mo  -10.906  18.8897460248  5.889523815
S1  -10.906  22.4877928831  4.34440811
S2  -10.906  22.4877928831  7.43463952
Mo  -12.464  21.5882811712  5.889523815
S1  -12.464  25.1863280295  4.34440811
S2  -12.464  25.1863280295  7.43463952
Mo  -14.022  24.2868163176  5.889523815
S1  -14.022  27.8848631759  4.34440811
S2  -14.022  27.8848631759  7.43463952
Mo  -15.58  26.985351464  5.889523815
S1  -15.58  30.5833983223  4.34440811
S2  -15.58  30.5833983223  7.43463952
Mo  -17.138  29.6838866104  5.889523815
S1  -17.138  33.2819334687  4.34440811
S2  -17.138  33.2819334687  7.43463952
Mo  -18.696  32.3824217568  5.889523815
Mo  -20.254  35.0809569032  5.889523815
Mo  -4.674  13.492675732  5.889523815
S1  -4.674  17.0907225903  4.34440811
S2  -4.674  17.0907225903  7.43463952
Mo  -6.232  16.1912108784  5.889523815
S1  -6.232  19.7892577367  4.34440811
S2  -6.232  19.7892577367  7.43463952
Mo  -7.79  18.8897460248  5.889523815
S1  -7.79  22.4877928831  4.34440811
S2  -7.79  22.4877928831  7.43463952
Mo  -9.348  21.5882811712  5.889523815
S1  -9.348  25.1863280295  4.34440811
S2  -9.348  25.1863280295  7.43463952
Mo  -10.906  24.2868163176  5.889523815
S1  -10.906  27.8848631759  4.34440811
S2  -10.906  27.8848631759  7.43463952
Mo  -12.464  26.985351464  5.889523815
S1  -12.464  30.5833983223  4.34440811
S2  -12.464  30.5833983223  7.43463952
Mo  -14.022  29.6838866104  5.889523815
Mo  -15.58  32.3824217568  5.889523815
Mo  -4.674  18.8897460248  5.889523815
S1  -4.674  22.4877928831  4.34440811
S2  -4.674  22.4877928831  7.43463952
Mo  -6.232  21.5882811712  5.889523815
S1  -6.232  25.1863280295  4.34440811
S2  -6.232  25.1863280295  7.43463952
Mo  -7.79  24.2868163176  5.889523815
S1  -7.79  27.8848631759  4.34440811
S2  -7.79  27.8848631759  7.43463952
Mo  -9.348  26.985351464  5.889523815
S1  -9.348  30.5833983223  4.34440811
S2  -9.348  30.5833983223  7.43463952
Mo  -10.906  29.6838866104  5.889523815
Mo  -4.674  24.2868163176  5.889523815
S1  -4.674  27.8848631759  4.34440811
S2  -4.674  27.8848631759  7.43463952
Mo  -6.232  26.985351464  5.889523815
Mo  -7.79  29.6838866104  5.889523815
S1  -26.2976703227  11.7035370302  10.24440811
S2  -26.2976703227  11.7035370302  13.33463952
S1  -28.1296043874  14.2241467816  10.24440811
S2  -28.1296043874  14.2241467816  13.33463952
S1  -19.5349230724  6.98851408492  10.24440811
S2  -19.5349230724  6.98851408492  13.33463952
S1  -21.3668571371  9.50912383633  10.24440811
S2  -21.3668571371  9.50912383633  13.33463952
S1  -23.1987912018  12.0297335878  10.24440811
S2  -23.1987912018  12.0297335878  13.33463952
Mo  -24.6540659279  10.9720659691  11.789523815
S1  -25.0307252666  14.5503433392  10.24440811
S2  -25.0307252666  14.5503433392  13.33463952
Mo  -26.4859999926  13.4926757205  11.789523815
S1  -26.8626593313  17.0709530906  10.24440811
S2  -26.8626593313  17.0709530906  13.33463952
Mo  -28.3179340573  16.013285472  11.789523815
S1  -28.694593396  19.591562842  10.24440811
S2  -28.694593396  19.591562842  13.33463952
S1  -14.6041098869  4.79410089109  10.24440811
S2  -14.6041098869  4.79410089109  13.33463952
S1  -16.4360439516  7.31471064251  10.24440811
S2  -16.4360439516  7.31471064251  13.33463952
Mo  -17.8913186776  6.25704302389  11.789523815
S1  -18.2679780163  9.83532039392  10.24440811
S2  -18.2679780163  9.83532039392  13.33463952
Mo  -19.7232527423  8.7776527753  11.789523815
S1  -20.099912081  12.3559301453  10.24440811
S2  -20.099912081  12.3559301453  13.33463952
Mo  -21.555186807  11.2982625267  11.789523815
S1  -21.9318461457  14.8765398967  10.24440811
S2  -21.9318461457  14.8765398967  13.33463952
Mo  -23.3871208717  13.8188722781  11.789523815
S1  -23.7637802104  17.3971496482  10.24440811
S2  -23.7637802104  17.3971496482  13.33463952
Mo  -25.2190549365  16.3394820295  11.789523815
S1  -25.5957142751  19.9177593996  10.24440811
S2  -25.5957142751  19.9177593996  13.33463952
Mo  -27.0509890012  18.860091781  11.789523815
S1  -27.4276483398  22.438369151  10.24440811
S2  -27.4276483398  22.438369151  13.33463952
Mo  -28.8829230659  21.3807015324  11.789523815
S1  -29.2595824045  24.9589789024  10.24440811
S2  -29.2595824045  24.9589789024  13.33463952
S1  -9.67329670128  2.59968769727  10.24440811
S2  -9.67329670128  2.59968769727  13.33463952
S1  -11.505230766  5.12029744868  10.24440811
S2  -11.505230766  5.12029744868  13.33463952
Mo  -12.960505492  4.06262983006  11.789523815
S1  -13.3371648307  7.6409072001  10.24440811
S2  -13.3371648307  7.6409072001  13.33463952
Mo  -14.7924395568  6.58323958148  11.789523815
S1  -15.1690988954  10.1615169515  10.24440811
S2  -15.1690988954  10.1615169515  13.33463952
Mo  -16.6243736215  9.10384933289  11.789523815
S1  -17.0010329601  12.6821267029  10.24440811
S2  -17.0010329601  12.6821267029  13.33463952
Mo  -18.4563076862  11.6244590843  11.789523815
S1  -18.8329670248  15.2027364543  10.24440811
S2  -18.8329670248  15.2027364543  13.33463952
Mo  -20.2882417509  14.1450688357  11.789523815
S1  -20.6649010895  17.7233462058  10.24440811
S2  -20.6649010895  17.7233462058  13.33463952
Mo  -22.1201758156  16.6656785871  11.789523815
S1  -22.4968351542  20.2439559572  10.24440811
S2  -22.4968351542  20.2439559572  13.33463952
Mo  -23.9521098803  19.1862883386  11.789523815
S1  -24.3287692189  22.7645657086  10.24440811
S2  -24.3287692189  22.7645657086  13.33463952
Mo  -25.784043945  21.70689809  11.789523815
S1  -26.1607032836  25.28517546  10.24440811
S2  -26.1607032836  25.28517546  13.33463952
Mo  -27.6159780097  24.2275078414  11.789523815
S1  -27.9926373483  27.8057852114  10.24440811
S2  -27.9926373483  27.8057852114  13.33463952
Mo  -29.4479120744  26.7481175928  11.789523815
S1  -29.824571413  30.3263949628  10.24440811
S2  -29.824571413  30.3263949628  13.33463952
S1  -4.7424835157  0.40527450344  10.24440811
S2  -4.7424835157  0.40527450344  13.33463952
S1  -6.5744175804  2.92588425486  10.24440811
S2  -6.5744175804  2.92588425486  13.33463952
Mo  -8.02969230646  1.86821663624  11.789523815
S1  -8.40635164511  5.44649400627  10.24440811
S2  -8.40635164511  5.44649400627  13.33463952
Mo  -9.86162637117  4.38882638765  11.789523815
S1  -10.2382857098  7.96710375769  10.24440811
S2  -10.2382857098  7.96710375769  13.33463952
Mo  -11.6935604359  6.90943613907  11.789523815
S1  -12.0702197745  10.4877135091  10.24440811
S2  -12.0702197745  10.4877135091  13.33463952
Mo  -13.5254945006  9.43004589048  11.789523815
S1  -13.9021538392  13.0083232605  10.24440811
S2  -13.9021538392  13.0083232605  13.33463952
Mo  -15.3574285653  11.9506556419  11.789523815
S1  -15.7340879039  15.5289330119  10.24440811
S2  -15.7340879039  15.5289330119  13.33463952
Mo  -17.18936263  14.4712653933  11.789523815
S1  -17.5660219686  18.0495427634  10.24440811
S2  -17.5660219686  18.0495427634  13.33463952
Mo  -19.0212966947  16.9918751447  11.789523815
S1  -19.3979560333  20.5701525148  10.24440811
S2  -19.3979560333  20.5701525148  13.33463952
Mo  -20.8532307594  19.5124848961  11.789523815
S1  -21.229890098  23.0907622662  10.24440811
S2  -21.229890098  23.0907622662  13.33463952
Mo  -22.6851648241  22.0330946476  11.789523815
S1  -23.0618241627  25.6113720176  10.24440811
S2  -23.0618241627  25.6113720176  13.33463952
Mo  -24.5170988888  24.553704399  11.789523815
S1  -24.8937582275  28.131981769  10.24440811
S2  -24.8937582275  28.131981769  13.33463952
Mo  -26.3490329535  27.0743141504  11.789523815
S1  -26.7256922922  30.6525915204  10.24440811
S2  -26.7256922922  30.6525915204  13.33463952
Mo  -28.1809670182  29.5949239018  11.789523815
S1  -28.5576263569  33.1732012718  10.24440811
S2  -28.5576263569  33.1732012718  13.33463952
Mo  -30.0129010829  32.1155336532  11.789523815
Mo  -3.09887912088  -0.32619655759  11.789523815
S1  -3.47553845952  3.25208081245  10.24440811
S2  -3.47553845952  3.25208081245  13.33463952
Mo  -4.93081318558  2.19441319383  11.789523815
S1  -5.30747252423  5.77269056386  10.24440811
S2  -5.30747252423  5.77269056386  13.33463952
Mo  -6.76274725029  4.71502294524  11.789523815
S1  -7.13940658893  8.29330031528  10.24440811
S2  -7.13940658893  8.29330031528  13.33463952
Mo  -8.59468131499  7.23563269666  11.789523815
S1  -8.97134065364  10.8139100667  10.24440811
S2  -8.97134065364  10.8139100667  13.33463952
Mo  -10.4266153797  9.75624244807  11.789523815
S1  -10.8032747183  13.3345198181  10.24440811
S2  -10.8032747183  13.3345198181  13.33463952
Mo  -12.2585494444  12.2768521995  11.789523815
S1  -12.635208783  15.8551295695  10.24440811
S2  -12.635208783  15.8551295695  13.33463952
Mo  -14.0904835091  14.7974619509  11.789523815
S1  -14.4671428478  18.3757393209  10.24440811
S2  -14.4671428478  18.3757393209  13.33463952
Mo  -15.9224175738  17.3180717023  11.789523815
S1  -16.2990769125  20.8963490723  10.24440811
S2  -16.2990769125  20.8963490723  13.33463952
Mo  -17.7543516385  19.8386814537  11.789523815
S1  -18.1310109772  23.4169588238  10.24440811
S2  -18.1310109772  23.4169588238  13.33463952
Mo  -19.5862857032  22.3592912052  11.789523815
S1  -19.9629450419  25.9375685752  10.24440811
S2  -19.9629450419  25.9375685752  13.33463952
Mo  -21.4182197679  24.8799009566  11.789523815
S1  -21.7948791066  28.4581783266  10.24440811
S2  -21.7948791066  28.4581783266  13.33463952
Mo  -23.2501538326  27.400510708  11.789523815
S1  -23.6268131713  30.978788078  10.24440811
S2  -23.6268131713  30.978788078  13.33463952
Mo  -25.0820878973  29.9211204594  11.789523815
S1  -25.458747236  33.4993978294  10.24440811
S2  -25.458747236  33.4993978294  13.33463952
Mo  -26.914021962  32.4417302108  11.789523815
S1  -27.2906813007  36.0200075808  10.24440811
S2  -27.2906813007  36.0200075808  13.33463952
Mo  -28.7459560267  34.9623399622  11.789523815
S1  -29.1226153654  38.5406173323  10.24440811
S2  -29.1226153654  38.5406173323  13.33463952
Mo  -3.66386812941  5.04121950283  11.789523815
S1  -4.04052746805  8.61949687287  10.24440811
S2  -4.04052746805  8.61949687287  13.33463952
Mo  -5.49580219411  7.56182925425  11.789523815
S1  -5.87246153276  11.1401066243  10.24440811
S2  -5.87246153276  11.1401066243  13.33463952
Mo  -7.32773625882  10.0824390057  11.789523815
S1  -7.70439559746  13.6607163757  10.24440811
S2  -7.70439559746  13.6607163757  13.33463952
Mo  -9.15967032352  12.6030487571  11.789523815
S1  -9.53632966217  16.1813261271  10.24440811
S2  -9.53632966217  16.1813261271  13.33463952
Mo  -10.9916043882  15.1236585085  11.789523815
S1  -11.3682637269  18.7019358785  10.24440811
S2  -11.3682637269  18.7019358785  13.33463952
Mo  -12.8235384529  17.6442682599  11.789523815
S1  -13.2001977916  21.2225456299  10.24440811
S2  -13.2001977916  21.2225456299  13.33463952
Mo  -14.6554725176  20.1648780113  11.789523815
S1  -15.0321318563  23.7431553814  10.24440811
S2  -15.0321318563  23.7431553814  13.33463952
Mo  -16.4874065823  22.6854877627  11.789523815
S1  -16.864065921  26.2637651328  10.24440811
S2  -16.864065921  26.2637651328  13.33463952
Mo  -18.3193406471  25.2060975142  11.789523815
S1  -18.6959999857  28.7843748842  10.24440811
S2  -18.6959999857  28.7843748842  13.33463952
Mo  -20.1512747117  27.7267072656  11.789523815
S1  -20.5279340504  31.3049846356  10.24440811
S2  -20.5279340504  31.3049846356  13.33463952
Mo  -21.9832087764  30.247317017  11.789523815
S1  -22.3598681151  33.825594387  10.24440811
S2  -22.3598681151  33.825594387  13.33463952
Mo  -23.8151428412  32.7679267684  11.789523815
S1  -24.1918021798  36.3462041384  10.24440811
S2  -24.1918021798  36.3462041384  13.33463952
Mo  -25.6470769059  35.2885365198  11.789523815
S1  -26.0237362445  38.8668138899  10.24440811
S2  -26.0237362445  38.8668138899  13.33463952
Mo  -27.4790109706  37.8091462712  11.789523815
Mo  -29.3109450353  40.3297560227  11.789523815
Mo  -4.22885713794  10.4086355632  11.789523815
S1  -4.60551647658  13.9869129333  10.24440811
S2  -4.60551647658  13.9869129333  13.33463952
Mo  -6.06079120264  12.9292453147  11.789523815
S1  -6.43745054129  16.5075226847  10.24440811
S2  -6.43745054129  16.5075226847  13.33463952
Mo  -7.89272526735  15.4498550661  11.789523815
S1  -8.26938460599  19.0281324361  10.24440811
S2  -8.26938460599  19.0281324361  13.33463952
Mo  -9.72465933205  17.9704648175  11.789523815
S1  -10.1013186707  21.5487421875  10.24440811
S2  -10.1013186707  21.5487421875  13.33463952
Mo  -11.5565933968  20.4910745689  11.789523815
S1  -11.9332527354  24.0693519389  10.24440811
S2  -11.9332527354  24.0693519389  13.33463952
Mo  -13.3885274615  23.0116843203  11.789523815
S1  -13.7651868001  26.5899616904  10.24440811
S2  -13.7651868001  26.5899616904  13.33463952
Mo  -15.2204615262  25.5322940718  11.789523815
S1  -15.5971208648  29.1105714418  10.24440811
S2  -15.5971208648  29.1105714418  13.33463952
Mo  -17.0523955909  28.0529038232  11.789523815
S1  -17.4290549295  31.6311811932  10.24440811
S2  -17.4290549295  31.6311811932  13.33463952
Mo  -18.8843296556  30.5735135746  11.789523815
S1  -19.2609889942  34.1517909446  10.24440811
S2  -19.2609889942  34.1517909446  13.33463952
Mo  -20.7162637203  33.094123326  11.789523815
Mo  -22.548197785  35.6147330774  11.789523815
Mo  -24.3801318497  38.1353428288  11.789523815
Mo  -4.79384614647  15.7760516237  11.789523815
S1  -5.17050548511  19.3543289937  10.24440811
S2  -5.17050548511  19.3543289937  13.33463952
Mo  -6.62578021117  18.2966613751  11.789523815
S1  -7.00243954982  21.8749387451  10.24440811
S2  -7.00243954982  21.8749387451  13.33463952
Mo  -8.45771427588  20.8172711265  11.789523815
S1  -8.83437361452  24.3955484965  10.24440811
S2  -8.83437361452  24.3955484965  13.33463952
Mo  -10.2896483406  23.3378808779  11.789523815
S1  -10.6663076792  26.916158248  10.24440811
S2  -10.6663076792  26.916158248  13.33463952
Mo  -12.1215824053  25.8584906293  11.789523815
S1  -12.4982417439  29.4367679994  10.24440811
S2  -12.4982417439  29.4367679994  13.33463952
Mo  -13.95351647  28.3791003807  11.789523815
S1  -14.3301758086  31.9573777508  10.24440811
S2  -14.3301758086  31.9573777508  13.33463952
Mo  -15.7854505347  30.8997101322  11.789523815
Mo  -17.6173845994  33.4203198836  11.789523815
S1  -3.90356042894  22.2011353027  10.24440811
S2  -3.90356042894  22.2011353027  13.33463952
Mo  -5.358835155  21.1434676841  11.789523815
S1  -5.73549449364  24.7217450541  10.24440811
S2  -5.73549449364  24.7217450541  13.33463952
Mo  -7.19076921971  23.6640774355  11.789523815
S1  -7.56742855835  27.2423548055  10.24440811
S2  -7.56742855835  27.2423548055  13.33463952
Mo  -9.02270328441  26.1846871869  11.789523815
S1  -9.39936262305  29.762964557  10.24440811
S2  -9.39936262305  29.762964557  13.33463952
Mo  -10.8546373491  28.7052969383  11.789523815
Mo  -12.6865714138  31.2259066898  11.789523815
Mo  -4.09189009883  23.9902739931  11.789523815
S1  -4.46854943747  27.5685513631  10.24440811
S2  -4.46854943747  27.5685513631  13.33463952
Mo  -5.92382416353  26.5108837445  11.789523815
Mo  -7.75575822824  29.0314934959  11.789523815

K_POINTS {GAMMA}