&CONTROL
  calculation  = "scf"
  prefix       = "lego"
  pseudo_dir   = "."
  outdir       = "."
  verbosity="high"
/
&SYSTEM
  ibrav     = 0
  celldm(1) = 4.648726
  nat       = 148
  ntyp      = 1
  vdw_corr = "grimme-d2"
  ecutwfc   = 60
  ecutrho = 600
/
&ELECTRONS
  conv_thr    = 1.D-8
  mixing_beta = 0.3D0
/
&IONS
 ion_dynamics="bfgs"
/

CELL_PARAMETERS {alat}
-0.5	6.062178	0.0
-5.5	2.598076	0.0
0.0	0.0	10.0

ATOMIC_SPECIES
xxxxxxx
xxxxxxx
xxxxxx

ATOMIC_POSITIONS {Angstrom}
C  -13.53  4.970986  0.0
C  -14.76  7.101408  0.0
C  -9.84  2.840563  0.0
C  -11.07  4.970986  0.0
C  -12.3  4.260845  0.0
C  -12.3  7.101408  0.0
C  -13.53  6.391267  0.0
C  -13.53  9.231831  0.0
C  -14.76  8.52169  0.0
C  -14.76  11.362253  0.0
C  -15.99  10.652112  0.0
C  -15.99  13.492676  0.0
C  -6.15  0.710141  0.0
C  -7.38  2.840563  0.0
C  -8.61  2.130422  0.0
C  -8.61  4.970986  0.0
C  -9.84  4.260845  0.0
C  -9.84  7.101408  0.0
C  -11.07  6.391267  0.0
C  -11.07  9.231831  0.0
C  -12.3  8.52169  0.0
C  -12.3  11.362253  0.0
C  -13.53  10.652112  0.0
C  -13.53  13.492676  0.0
C  -14.76  12.782535  0.0
C  -14.76  15.623098  0.0
C  -15.99  14.912957  0.0
C  -15.99  17.753521  0.0
C  -3.69  0.710141  0.0
C  -4.92  0.0  0.0
C  -4.92  2.840563  0.0
C  -6.15  2.130422  0.0
C  -6.15  4.970986  0.0
C  -7.38  4.260845  0.0
C  -7.38  7.101408  0.0
C  -8.61  6.391267  0.0
C  -8.61  9.231831  0.0
C  -9.84  8.52169  0.0
C  -9.84  11.362253  0.0
C  -11.07  10.652112  0.0
C  -11.07  13.492676  0.0
C  -12.3  12.782535  0.0
C  -12.3  15.623098  0.0
C  -13.53  14.912957  0.0
C  -13.53  17.753521  0.0
C  -14.76  17.04338  0.0
C  -15.99  19.173802  0.0
C  -2.46  0.0  0.0
C  -2.46  2.840563  0.0
C  -3.69  2.130422  0.0
C  -3.69  4.970986  0.0
C  -4.92  4.260845  0.0
C  -4.92  7.101408  0.0
C  -6.15  6.391267  0.0
C  -6.15  9.231831  0.0
C  -7.38  8.52169  0.0
C  -7.38  11.362253  0.0
C  -8.61  10.652112  0.0
C  -8.61  13.492676  0.0
C  -9.84  12.782535  0.0
C  -9.84  15.623098  0.0
C  -11.07  14.912957  0.0
C  -12.3  17.04338  0.0
C  -3.69  6.391267  0.0
C  -3.69  9.231831  0.0
C  -4.92  8.52169  0.0
C  -4.92  11.362253  0.0
C  -6.15  10.652112  0.0
C  -6.15  13.492676  0.0
C  -7.38  12.782535  0.0
C  -8.61  14.912957  0.0
C  -3.69  10.652112  0.0
C  -3.69  13.492676  0.0
C  -4.92  12.782535  0.0
C  -13.297299  4.990175  3.3
C  -14.859732  6.890281  3.3
C  -7.745676  1.593016  3.3
C  -9.308109  3.493122  3.3
C  -10.405136  2.591051  3.3
C  -10.870542  5.393228  3.3
C  -11.967569  4.491157  3.3
C  -12.432975  7.293334  3.3
C  -13.530002  6.391263  3.3
C  -13.995408  9.19344  3.3
C  -15.092435  8.291369  3.3
C  -15.557841  11.093546  3.3
C  -3.756487  0.095964  3.3
C  -5.31892  1.99607  3.3
C  -6.415946  1.093999  3.3
C  -6.881353  3.896176  3.3
C  -7.978379  2.994105  3.3
C  -8.443786  5.796282  3.3
C  -9.540812  4.894211  3.3
C  -10.006219  7.696388  3.3
C  -11.103245  6.794317  3.3
C  -11.568652  9.596494  3.3
C  -12.665678  8.694423  3.3
C  -13.131085  11.4966  3.3
C  -14.228111  10.594529  3.3
C  -14.693518  13.396706  3.3
C  -15.790544  12.494635  3.3
C  -16.255951  15.296812  3.3
C  -2.426757  -0.403054  3.3
C  -2.892163  2.399124  3.3
C  -3.98919  1.497052  3.3
C  -4.454596  4.29923  3.3
C  -5.551623  3.397158  3.3
C  -6.017029  6.199336  3.3
C  -7.114056  5.297264  3.3
C  -7.579462  8.099442  3.3
C  -8.676489  7.197371  3.3
C  -9.141895  9.999548  3.3
C  -10.238922  9.097477  3.3
C  -10.704328  11.899654  3.3
C  -11.801355  10.997583  3.3
C  -12.266761  13.79976  3.3
C  -13.363788  12.897689  3.3
C  -13.829194  15.699866  3.3
C  -14.926221  14.797795  3.3
C  -15.391627  17.599972  3.3
C  -16.488654  16.697901  3.3
C  -3.124866  3.800212  3.3
C  -3.590272  6.602389  3.3
C  -4.687299  5.700318  3.3
C  -5.152705  8.502495  3.3
C  -6.249732  7.600424  3.3
C  -6.715138  10.402601  3.3
C  -7.812165  9.50053  3.3
C  -8.277571  12.302707  3.3
C  -9.374598  11.400636  3.3
C  -9.840004  14.202813  3.3
C  -10.937031  13.300742  3.3
C  -11.402437  16.10292  3.3
C  -12.499464  15.200848  3.3
C  -12.96487  18.003026  3.3
C  -14.061897  17.100954  3.3
C  -15.62433  19.00106  3.3
C  -3.822975  8.003478  3.3
C  -4.288382  10.805655  3.3
C  -5.385409  9.903584  3.3
C  -5.850815  12.705761  3.3
C  -6.947842  11.80369  3.3
C  -7.413248  14.605867  3.3
C  -8.510275  13.703796  3.3
C  -10.072708  15.603902  3.3
C  -3.424058  13.108815  3.3
C  -4.521085  12.206744  3.3
C  -6.083518  14.10685  3.3

K_POINTS {GAMMA}