&CONTROL
  calculation  = "relax",
  prefix       = "tBLG",
  pseudo_dir   = ".",
  outdir       = ".",
  verbosity='high'
/
&SYSTEM
  ibrav     = 0,
  celldm(1) = 4.592,
  nat       = 1084,
  ntyp      = 1,
  ecutwfc   = 60,
  vdw_corr = 'grimme-d2'
  occupations = 'smearing'
  smearing = 'gaussian'
  degauss = 0.001
/
&ELECTRONS
  conv_thr    = 1.D-10,
  mixing_beta = 0.7D0,
/
&IONS
 ion_dynamics='bfgs',
/

CELL_PARAMETERS {alat}
-0.500000 16.454483 0.000000
-14.500000 7.794229 0.000000
0.0  0.0       10.2880658

ATOMIC_SPECIES
C 12 C.UPF

ATOMIC_POSITIONS {Angstrom}
C -35.235000 17.537014 0.000000
C -36.450000 19.641456 0.000000
C -31.590000 15.432573 0.000000
C -32.805000 17.537014 0.000000
C -34.020000 16.835534 0.000000
C -34.020000 19.641456 0.000000
C -35.235000 18.939975 0.000000
C -35.235000 21.745898 0.000000
C -36.450000 21.044417 0.000000
C -36.450000 23.850340 0.000000
C -27.945000 13.328131 0.000000
C -29.160000 15.432573 0.000000
C -30.375000 14.731092 0.000000
C -30.375000 17.537014 0.000000
C -31.590000 16.835534 0.000000
C -31.590000 19.641456 0.000000
C -32.805000 18.939975 0.000000
C -32.805000 21.745898 0.000000
C -34.020000 21.044417 0.000000
C -34.020000 23.850340 0.000000
C -35.235000 23.148859 0.000000
C -35.235000 25.954781 0.000000
C -36.450000 25.253301 0.000000
C -36.450000 28.059223 0.000000
C -24.300000 11.223689 0.000000
C -25.515000 13.328131 0.000000
C -26.730000 12.626650 0.000000
C -26.730000 15.432573 0.000000
C -27.945000 14.731092 0.000000
C -27.945000 17.537014 0.000000
C -29.160000 16.835534 0.000000
C -29.160000 19.641456 0.000000
C -30.375000 18.939975 0.000000
C -30.375000 21.745898 0.000000
C -31.590000 21.044417 0.000000
C -31.590000 23.850340 0.000000
C -32.805000 23.148859 0.000000
C -32.805000 25.954781 0.000000
C -34.020000 25.253301 0.000000
C -34.020000 28.059223 0.000000
C -35.235000 27.357742 0.000000
C -35.235000 30.163665 0.000000
C -36.450000 29.462184 0.000000
C -36.450000 32.268106 0.000000
C -20.655000 9.119247 0.000000
C -21.870000 11.223689 0.000000
C -23.085000 10.522209 0.000000
C -23.085000 13.328131 0.000000
C -24.300000 12.626650 0.000000
C -24.300000 15.432573 0.000000
C -25.515000 14.731092 0.000000
C -25.515000 17.537014 0.000000
C -26.730000 16.835534 0.000000
C -26.730000 19.641456 0.000000
C -27.945000 18.939975 0.000000
C -27.945000 21.745898 0.000000
C -29.160000 21.044417 0.000000
C -29.160000 23.850340 0.000000
C -30.375000 23.148859 0.000000
C -30.375000 25.954781 0.000000
C -31.590000 25.253301 0.000000
C -31.590000 28.059223 0.000000
C -32.805000 27.357742 0.000000
C -32.805000 30.163665 0.000000
C -34.020000 29.462184 0.000000
C -34.020000 32.268106 0.000000
C -35.235000 31.566626 0.000000
C -35.235000 34.372548 0.000000
C -36.450000 33.671068 0.000000
C -36.450000 36.476990 0.000000
C -17.010000 7.014806 0.000000
C -18.225000 9.119247 0.000000
C -19.440000 8.417767 0.000000
C -19.440000 11.223689 0.000000
C -20.655000 10.522209 0.000000
C -20.655000 13.328131 0.000000
C -21.870000 12.626650 0.000000
C -21.870000 15.432573 0.000000
C -23.085000 14.731092 0.000000
C -23.085000 17.537014 0.000000
C -24.300000 16.835534 0.000000
C -24.300000 19.641456 0.000000
C -25.515000 18.939975 0.000000
C -25.515000 21.745898 0.000000
C -26.730000 21.044417 0.000000
C -26.730000 23.850340 0.000000
C -27.945000 23.148859 0.000000
C -27.945000 25.954781 0.000000
C -29.160000 25.253301 0.000000
C -29.160000 28.059223 0.000000
C -30.375000 27.357742 0.000000
C -30.375000 30.163665 0.000000
C -31.590000 29.462184 0.000000
C -31.590000 32.268106 0.000000
C -32.805000 31.566626 0.000000
C -32.805000 34.372548 0.000000
C -34.020000 33.671068 0.000000
C -34.020000 36.476990 0.000000
C -35.235000 35.775509 0.000000
C -35.235000 38.581432 0.000000
C -36.450000 37.879951 0.000000
C -36.450000 40.685873 0.000000
C -13.365000 4.910364 0.000000
C -14.580000 7.014806 0.000000
C -15.795000 6.313325 0.000000
C -15.795000 9.119247 0.000000
C -17.010000 8.417767 0.000000
C -17.010000 11.223689 0.000000
C -18.225000 10.522209 0.000000
C -18.225000 13.328131 0.000000
C -19.440000 12.626650 0.000000
C -19.440000 15.432573 0.000000
C -20.655000 14.731092 0.000000
C -20.655000 17.537014 0.000000
C -21.870000 16.835534 0.000000
C -21.870000 19.641456 0.000000
C -23.085000 18.939975 0.000000
C -23.085000 21.745898 0.000000
C -24.300000 21.044417 0.000000
C -24.300000 23.850340 0.000000
C -25.515000 23.148859 0.000000
C -25.515000 25.954781 0.000000
C -26.730000 25.253301 0.000000
C -26.730000 28.059223 0.000000
C -27.945000 27.357742 0.000000
C -27.945000 30.163665 0.000000
C -29.160000 29.462184 0.000000
C -29.160000 32.268106 0.000000
C -30.375000 31.566626 0.000000
C -30.375000 34.372548 0.000000
C -31.590000 33.671068 0.000000
C -31.590000 36.476990 0.000000
C -32.805000 35.775509 0.000000
C -32.805000 38.581432 0.000000
C -34.020000 37.879951 0.000000
C -34.020000 40.685873 0.000000
C -35.235000 39.984393 0.000000
C -35.235000 42.790315 0.000000
C -36.450000 42.088834 0.000000
C -36.450000 44.894757 0.000000
C -10.935000 4.910364 0.000000
C -12.150000 4.208883 0.000000
C -12.150000 7.014806 0.000000
C -13.365000 6.313325 0.000000
C -13.365000 9.119247 0.000000
C -14.580000 8.417767 0.000000
C -14.580000 11.223689 0.000000
C -15.795000 10.522209 0.000000
C -15.795000 13.328131 0.000000
C -17.010000 12.626650 0.000000
C -17.010000 15.432573 0.000000
C -18.225000 14.731092 0.000000
C -18.225000 17.537014 0.000000
C -19.440000 16.835534 0.000000
C -19.440000 19.641456 0.000000
C -20.655000 18.939975 0.000000
C -20.655000 21.745898 0.000000
C -21.870000 21.044417 0.000000
C -21.870000 23.850340 0.000000
C -23.085000 23.148859 0.000000
C -23.085000 25.954781 0.000000
C -24.300000 25.253301 0.000000
C -24.300000 28.059223 0.000000
C -25.515000 27.357742 0.000000
C -25.515000 30.163665 0.000000
C -26.730000 29.462184 0.000000
C -26.730000 32.268106 0.000000
C -27.945000 31.566626 0.000000
C -27.945000 34.372548 0.000000
C -29.160000 33.671068 0.000000
C -29.160000 36.476990 0.000000
C -30.375000 35.775509 0.000000
C -30.375000 38.581432 0.000000
C -31.590000 37.879951 0.000000
C -31.590000 40.685873 0.000000
C -32.805000 39.984393 0.000000
C -32.805000 42.790315 0.000000
C -34.020000 42.088834 0.000000
C -34.020000 44.894757 0.000000
C -35.235000 44.193276 0.000000
C -35.235000 46.999198 0.000000
C -36.450000 46.297718 0.000000
C -36.450000 49.103640 0.000000
C -7.290000 2.805922 0.000000
C -8.505000 4.910364 0.000000
C -9.720000 4.208883 0.000000
C -9.720000 7.014806 0.000000
C -10.935000 6.313325 0.000000
C -10.935000 9.119247 0.000000
C -12.150000 8.417767 0.000000
C -12.150000 11.223689 0.000000
C -13.365000 10.522209 0.000000
C -13.365000 13.328131 0.000000
C -14.580000 12.626650 0.000000
C -14.580000 15.432573 0.000000
C -15.795000 14.731092 0.000000
C -15.795000 17.537014 0.000000
C -17.010000 16.835534 0.000000
C -17.010000 19.641456 0.000000
C -18.225000 18.939975 0.000000
C -18.225000 21.745898 0.000000
C -19.440000 21.044417 0.000000
C -19.440000 23.850340 0.000000
C -20.655000 23.148859 0.000000
C -20.655000 25.954781 0.000000
C -21.870000 25.253301 0.000000
C -21.870000 28.059223 0.000000
C -23.085000 27.357742 0.000000
C -23.085000 30.163665 0.000000
C -24.300000 29.462184 0.000000
C -24.300000 32.268106 0.000000
C -25.515000 31.566626 0.000000
C -25.515000 34.372548 0.000000
C -26.730000 33.671068 0.000000
C -26.730000 36.476990 0.000000
C -27.945000 35.775509 0.000000
C -27.945000 38.581432 0.000000
C -29.160000 37.879951 0.000000
C -29.160000 40.685873 0.000000
C -30.375000 39.984393 0.000000
C -30.375000 42.790315 0.000000
C -31.590000 42.088834 0.000000
C -31.590000 44.894757 0.000000
C -32.805000 44.193276 0.000000
C -32.805000 46.999198 0.000000
C -34.020000 46.297718 0.000000
C -34.020000 49.103640 0.000000
C -35.235000 48.402160 0.000000
C -35.235000 51.208082 0.000000
C -36.450000 50.506601 0.000000
C -36.450000 53.312524 0.000000
C -3.645000 0.701481 0.000000
C -4.860000 2.805922 0.000000
C -6.075000 2.104442 0.000000
C -6.075000 4.910364 0.000000
C -7.290000 4.208883 0.000000
C -7.290000 7.014806 0.000000
C -8.505000 6.313325 0.000000
C -8.505000 9.119247 0.000000
C -9.720000 8.417767 0.000000
C -9.720000 11.223689 0.000000
C -10.935000 10.522209 0.000000
C -10.935000 13.328131 0.000000
C -12.150000 12.626650 0.000000
C -12.150000 15.432573 0.000000
C -13.365000 14.731092 0.000000
C -13.365000 17.537014 0.000000
C -14.580000 16.835534 0.000000
C -14.580000 19.641456 0.000000
C -15.795000 18.939975 0.000000
C -15.795000 21.745898 0.000000
C -17.010000 21.044417 0.000000
C -17.010000 23.850340 0.000000
C -18.225000 23.148859 0.000000
C -18.225000 25.954781 0.000000
C -19.440000 25.253301 0.000000
C -19.440000 28.059223 0.000000
C -20.655000 27.357742 0.000000
C -20.655000 30.163665 0.000000
C -21.870000 29.462184 0.000000
C -21.870000 32.268106 0.000000
C -23.085000 31.566626 0.000000
C -23.085000 34.372548 0.000000
C -24.300000 33.671068 0.000000
C -24.300000 36.476990 0.000000
C -25.515000 35.775509 0.000000
C -25.515000 38.581432 0.000000
C -26.730000 37.879951 0.000000
C -26.730000 40.685873 0.000000
C -27.945000 39.984393 0.000000
C -27.945000 42.790315 0.000000
C -29.160000 42.088834 0.000000
C -29.160000 44.894757 0.000000
C -30.375000 44.193276 0.000000
C -30.375000 46.999198 0.000000
C -31.590000 46.297718 0.000000
C -31.590000 49.103640 0.000000
C -32.805000 48.402160 0.000000
C -32.805000 51.208082 0.000000
C -34.020000 50.506601 0.000000
C -34.020000 53.312524 0.000000
C -35.235000 52.611043 0.000000
C -35.235000 55.416965 0.000000
C -36.450000 54.715485 0.000000
C -2.430000 0.000000 0.000000
C -2.430000 2.805922 0.000000
C -3.645000 2.104442 0.000000
C -3.645000 4.910364 0.000000
C -4.860000 4.208883 0.000000
C -4.860000 7.014806 0.000000
C -6.075000 6.313325 0.000000
C -6.075000 9.119247 0.000000
C -7.290000 8.417767 0.000000
C -7.290000 11.223689 0.000000
C -8.505000 10.522209 0.000000
C -8.505000 13.328131 0.000000
C -9.720000 12.626650 0.000000
C -9.720000 15.432573 0.000000
C -10.935000 14.731092 0.000000
C -10.935000 17.537014 0.000000
C -12.150000 16.835534 0.000000
C -12.150000 19.641456 0.000000
C -13.365000 18.939975 0.000000
C -13.365000 21.745898 0.000000
C -14.580000 21.044417 0.000000
C -14.580000 23.850340 0.000000
C -15.795000 23.148859 0.000000
C -15.795000 25.954781 0.000000
C -17.010000 25.253301 0.000000
C -17.010000 28.059223 0.000000
C -18.225000 27.357742 0.000000
C -18.225000 30.163665 0.000000
C -19.440000 29.462184 0.000000
C -19.440000 32.268106 0.000000
C -20.655000 31.566626 0.000000
C -20.655000 34.372548 0.000000
C -21.870000 33.671068 0.000000
C -21.870000 36.476990 0.000000
C -23.085000 35.775509 0.000000
C -23.085000 38.581432 0.000000
C -24.300000 37.879951 0.000000
C -24.300000 40.685873 0.000000
C -25.515000 39.984393 0.000000
C -25.515000 42.790315 0.000000
C -26.730000 42.088834 0.000000
C -26.730000 44.894757 0.000000
C -27.945000 44.193276 0.000000
C -27.945000 46.999198 0.000000
C -29.160000 46.297718 0.000000
C -29.160000 49.103640 0.000000
C -30.375000 48.402160 0.000000
C -30.375000 51.208082 0.000000
C -31.590000 50.506601 0.000000
C -31.590000 53.312524 0.000000
C -32.805000 52.611043 0.000000
C -34.020000 54.715485 0.000000
C -2.430000 4.208883 0.000000
C -2.430000 7.014806 0.000000
C -3.645000 6.313325 0.000000
C -3.645000 9.119247 0.000000
C -4.860000 8.417767 0.000000
C -4.860000 11.223689 0.000000
C -6.075000 10.522209 0.000000
C -6.075000 13.328131 0.000000
C -7.290000 12.626650 0.000000
C -7.290000 15.432573 0.000000
C -8.505000 14.731092 0.000000
C -8.505000 17.537014 0.000000
C -9.720000 16.835534 0.000000
C -9.720000 19.641456 0.000000
C -10.935000 18.939975 0.000000
C -10.935000 21.745898 0.000000
C -12.150000 21.044417 0.000000
C -12.150000 23.850340 0.000000
C -13.365000 23.148859 0.000000
C -13.365000 25.954781 0.000000
C -14.580000 25.253301 0.000000
C -14.580000 28.059223 0.000000
C -15.795000 27.357742 0.000000
C -15.795000 30.163665 0.000000
C -17.010000 29.462184 0.000000
C -17.010000 32.268106 0.000000
C -18.225000 31.566626 0.000000
C -18.225000 34.372548 0.000000
C -19.440000 33.671068 0.000000
C -19.440000 36.476990 0.000000
C -20.655000 35.775509 0.000000
C -20.655000 38.581432 0.000000
C -21.870000 37.879951 0.000000
C -21.870000 40.685873 0.000000
C -23.085000 39.984393 0.000000
C -23.085000 42.790315 0.000000
C -24.300000 42.088834 0.000000
C -24.300000 44.894757 0.000000
C -25.515000 44.193276 0.000000
C -25.515000 46.999198 0.000000
C -26.730000 46.297718 0.000000
C -26.730000 49.103640 0.000000
C -27.945000 48.402160 0.000000
C -27.945000 51.208082 0.000000
C -29.160000 50.506601 0.000000
C -30.375000 52.611043 0.000000
C -2.430000 8.417767 0.000000
C -2.430000 11.223689 0.000000
C -3.645000 10.522209 0.000000
C -3.645000 13.328131 0.000000
C -4.860000 12.626650 0.000000
C -4.860000 15.432573 0.000000
C -6.075000 14.731092 0.000000
C -6.075000 17.537014 0.000000
C -7.290000 16.835534 0.000000
C -7.290000 19.641456 0.000000
C -8.505000 18.939975 0.000000
C -8.505000 21.745898 0.000000
C -9.720000 21.044417 0.000000
C -9.720000 23.850340 0.000000
C -10.935000 23.148859 0.000000
C -10.935000 25.954781 0.000000
C -12.150000 25.253301 0.000000
C -12.150000 28.059223 0.000000
C -13.365000 27.357742 0.000000
C -13.365000 30.163665 0.000000
C -14.580000 29.462184 0.000000
C -14.580000 32.268106 0.000000
C -15.795000 31.566626 0.000000
C -15.795000 34.372548 0.000000
C -17.010000 33.671068 0.000000
C -17.010000 36.476990 0.000000
C -18.225000 35.775509 0.000000
C -18.225000 38.581432 0.000000
C -19.440000 37.879951 0.000000
C -19.440000 40.685873 0.000000
C -20.655000 39.984393 0.000000
C -20.655000 42.790315 0.000000
C -21.870000 42.088834 0.000000
C -21.870000 44.894757 0.000000
C -23.085000 44.193276 0.000000
C -23.085000 46.999198 0.000000
C -24.300000 46.297718 0.000000
C -24.300000 49.103640 0.000000
C -25.515000 48.402160 0.000000
C -26.730000 50.506601 0.000000
C -2.430000 12.626650 0.000000
C -2.430000 15.432573 0.000000
C -3.645000 14.731092 0.000000
C -3.645000 17.537014 0.000000
C -4.860000 16.835534 0.000000
C -4.860000 19.641456 0.000000
C -6.075000 18.939975 0.000000
C -6.075000 21.745898 0.000000
C -7.290000 21.044417 0.000000
C -7.290000 23.850340 0.000000
C -8.505000 23.148859 0.000000
C -8.505000 25.954781 0.000000
C -9.720000 25.253301 0.000000
C -9.720000 28.059223 0.000000
C -10.935000 27.357742 0.000000
C -10.935000 30.163665 0.000000
C -12.150000 29.462184 0.000000
C -12.150000 32.268106 0.000000
C -13.365000 31.566626 0.000000
C -13.365000 34.372548 0.000000
C -14.580000 33.671068 0.000000
C -14.580000 36.476990 0.000000
C -15.795000 35.775509 0.000000
C -15.795000 38.581432 0.000000
C -17.010000 37.879951 0.000000
C -17.010000 40.685873 0.000000
C -18.225000 39.984393 0.000000
C -18.225000 42.790315 0.000000
C -19.440000 42.088834 0.000000
C -19.440000 44.894757 0.000000
C -20.655000 44.193276 0.000000
C -20.655000 46.999198 0.000000
C -21.870000 46.297718 0.000000
C -23.085000 48.402160 0.000000
C -2.430000 16.835534 0.000000
C -2.430000 19.641456 0.000000
C -3.645000 18.939975 0.000000
C -3.645000 21.745898 0.000000
C -4.860000 21.044417 0.000000
C -4.860000 23.850340 0.000000
C -6.075000 23.148859 0.000000
C -6.075000 25.954781 0.000000
C -7.290000 25.253301 0.000000
C -7.290000 28.059223 0.000000
C -8.505000 27.357742 0.000000
C -8.505000 30.163665 0.000000
C -9.720000 29.462184 0.000000
C -9.720000 32.268106 0.000000
C -10.935000 31.566626 0.000000
C -10.935000 34.372548 0.000000
C -12.150000 33.671068 0.000000
C -12.150000 36.476990 0.000000
C -13.365000 35.775509 0.000000
C -13.365000 38.581432 0.000000
C -14.580000 37.879951 0.000000
C -14.580000 40.685873 0.000000
C -15.795000 39.984393 0.000000
C -15.795000 42.790315 0.000000
C -17.010000 42.088834 0.000000
C -17.010000 44.894757 0.000000
C -18.225000 44.193276 0.000000
C -19.440000 46.297718 0.000000
C -2.430000 21.044417 0.000000
C -2.430000 23.850340 0.000000
C -3.645000 23.148859 0.000000
C -3.645000 25.954781 0.000000
C -4.860000 25.253301 0.000000
C -4.860000 28.059223 0.000000
C -6.075000 27.357742 0.000000
C -6.075000 30.163665 0.000000
C -7.290000 29.462184 0.000000
C -7.290000 32.268106 0.000000
C -8.505000 31.566626 0.000000
C -8.505000 34.372548 0.000000
C -9.720000 33.671068 0.000000
C -9.720000 36.476990 0.000000
C -10.935000 35.775509 0.000000
C -10.935000 38.581432 0.000000
C -12.150000 37.879951 0.000000
C -12.150000 40.685873 0.000000
C -13.365000 39.984393 0.000000
C -13.365000 42.790315 0.000000
C -14.580000 42.088834 0.000000
C -15.795000 44.193276 0.000000
C -2.430000 25.253301 0.000000
C -2.430000 28.059223 0.000000
C -3.645000 27.357742 0.000000
C -3.645000 30.163665 0.000000
C -4.860000 29.462184 0.000000
C -4.860000 32.268106 0.000000
C -6.075000 31.566626 0.000000
C -6.075000 34.372548 0.000000
C -7.290000 33.671068 0.000000
C -7.290000 36.476990 0.000000
C -8.505000 35.775509 0.000000
C -8.505000 38.581432 0.000000
C -9.720000 37.879951 0.000000
C -9.720000 40.685873 0.000000
C -10.935000 39.984393 0.000000
C -10.935000 42.790315 0.000000
C -12.150000 42.088834 0.000000
C -2.430000 29.462184 0.000000
C -2.430000 32.268106 0.000000
C -3.645000 31.566626 0.000000
C -3.645000 34.372548 0.000000
C -4.860000 33.671068 0.000000
C -4.860000 36.476990 0.000000
C -6.075000 35.775509 0.000000
C -6.075000 38.581432 0.000000
C -7.290000 37.879951 0.000000
C -7.290000 40.685873 0.000000
C -8.505000 39.984393 0.000000
C -9.720000 42.088834 0.000000
C -2.430000 33.671068 0.000000
C -2.430000 36.476990 0.000000
C -3.645000 35.775509 0.000000
C -3.645000 38.581432 0.000000
C -4.860000 37.879951 0.000000
C -6.075000 39.984393 0.000000
C -2.430000 37.879951 0.000000
C -35.149815 17.539603 3.000000
C -36.490351 19.566390 3.000000
C -31.383764 15.660360 3.000000
C -32.724299 17.687147 3.000000
C -33.894465 16.913188 3.000000
C -34.064834 19.713934 3.000000
C -35.235000 18.939975 3.000000
C -35.405369 21.740721 3.000000
C -36.575535 20.966763 3.000000
C -36.745904 23.767508 3.000000
C -26.277177 11.754329 3.000000
C -27.617712 13.781117 3.000000
C -28.958247 15.807904 3.000000
C -30.128413 15.033945 3.000000
C -30.298782 17.834691 3.000000
C -31.468948 17.060732 3.000000
C -31.639317 19.861478 3.000000
C -32.809483 19.087519 3.000000
C -32.979852 21.888265 3.000000
C -34.150018 21.114306 3.000000
C -34.320387 23.915052 3.000000
C -35.490553 23.141093 3.000000
C -35.660923 25.941839 3.000000
C -36.831089 25.167881 3.000000
C -37.001458 27.968626 3.000000
C -22.511125 9.875086 3.000000
C -23.851661 11.901873 3.000000
C -25.021827 11.127915 3.000000
C -25.192196 13.928660 3.000000
C -26.362362 13.154702 3.000000
C -26.532731 15.955447 3.000000
C -27.702897 15.181489 3.000000
C -27.873266 17.982234 3.000000
C -29.043432 17.208276 3.000000
C -29.213801 20.009022 3.000000
C -30.383967 19.235063 3.000000
C -30.554336 22.035809 3.000000
C -31.724502 21.261850 3.000000
C -31.894871 24.062596 3.000000
C -33.065037 23.288637 3.000000
C -33.235406 26.089383 3.000000
C -34.405572 25.315424 3.000000
C -34.575941 28.116170 3.000000
C -35.746107 27.342211 3.000000
C -35.916476 30.142957 3.000000
C -18.745074 7.995843 3.000000
C -20.085609 10.022630 3.000000
C -21.255775 9.248672 3.000000
C -21.426144 12.049417 3.000000
C -22.596310 11.275459 3.000000
C -22.766679 14.076204 3.000000
C -23.936845 13.302246 3.000000
C -24.107214 16.102991 3.000000
C -25.277380 15.329033 3.000000
C -25.447749 18.129778 3.000000
C -26.617915 17.355820 3.000000
C -26.788284 20.156565 3.000000
C -27.958450 19.382607 3.000000
C -28.128819 22.183352 3.000000
C -29.298985 21.409394 3.000000
C -29.469354 24.210140 3.000000
C -30.639520 23.436181 3.000000
C -30.809889 26.236927 3.000000
C -31.980055 25.462968 3.000000
C -32.150424 28.263714 3.000000
C -33.320590 27.489755 3.000000
C -33.490959 30.290501 3.000000
C -34.661125 29.516542 3.000000
C -34.831494 32.317288 3.000000
C -36.001661 31.543329 3.000000
C -36.172030 34.344075 3.000000
C -14.979022 6.116600 3.000000
C -16.319557 8.143387 3.000000
C -17.489723 7.369429 3.000000
C -17.660092 10.170174 3.000000
C -18.830258 9.396216 3.000000
C -19.000627 12.196961 3.000000
C -20.170793 11.423003 3.000000
C -20.341162 14.223748 3.000000
C -21.511328 13.449790 3.000000
C -21.681697 16.250535 3.000000
C -22.851863 15.476577 3.000000
C -23.022232 18.277322 3.000000
C -24.192399 17.503364 3.000000
C -24.362768 20.304109 3.000000
C -25.532934 19.530151 3.000000
C -25.703303 22.330896 3.000000
C -26.873469 21.556938 3.000000
C -27.043838 24.357683 3.000000
C -28.214004 23.583725 3.000000
C -28.384373 26.384470 3.000000
C -29.554539 25.610512 3.000000
C -29.724908 28.411257 3.000000
C -30.895074 27.637299 3.000000
C -31.065443 30.438045 3.000000
C -32.235609 29.664086 3.000000
C -32.405978 32.464832 3.000000
C -33.576144 31.690873 3.000000
C -33.746513 34.491619 3.000000
C -34.916679 33.717660 3.000000
C -35.087048 36.518406 3.000000
C -36.257214 35.744447 3.000000
C -36.427583 38.545193 3.000000
C -11.212970 4.237357 3.000000
C -12.553506 6.264144 3.000000
C -13.723672 5.490186 3.000000
C -13.894041 8.290931 3.000000
C -15.064207 7.516973 3.000000
C -15.234576 10.317718 3.000000
C -16.404742 9.543760 3.000000
C -16.575111 12.344505 3.000000
C -17.745277 11.570547 3.000000
C -17.915646 14.371292 3.000000
C -19.085812 13.597334 3.000000
C -19.256181 16.398079 3.000000
C -20.426347 15.624121 3.000000
C -20.596716 18.424866 3.000000
C -21.766882 17.650908 3.000000
C -21.937251 20.451653 3.000000
C -23.107417 19.677695 3.000000
C -23.277786 22.478440 3.000000
C -24.447952 21.704482 3.000000
C -24.618321 24.505227 3.000000
C -25.788487 23.731269 3.000000
C -25.958856 26.532014 3.000000
C -27.129022 25.758056 3.000000
C -27.299391 28.558801 3.000000
C -28.469557 27.784843 3.000000
C -28.639926 30.585588 3.000000
C -29.810092 29.811630 3.000000
C -29.980461 32.612375 3.000000
C -31.150627 31.838417 3.000000
C -31.320996 34.639163 3.000000
C -32.491162 33.865204 3.000000
C -32.661531 36.665950 3.000000
C -33.831697 35.891991 3.000000
C -34.002066 38.692737 3.000000
C -35.172232 37.918778 3.000000
C -35.342601 40.719524 3.000000
C -36.512768 39.945565 3.000000
C -36.683137 42.746311 3.000000
C -7.446919 2.358114 3.000000
C -8.787454 4.384901 3.000000
C -9.957620 3.610942 3.000000
C -10.127989 6.411688 3.000000
C -11.298155 5.637729 3.000000
C -11.468524 8.438475 3.000000
C -12.638690 7.664517 3.000000
C -12.809059 10.465262 3.000000
C -13.979225 9.691304 3.000000
C -14.149594 12.492049 3.000000
C -15.319760 11.718091 3.000000
C -15.490129 14.518836 3.000000
C -16.660295 13.744878 3.000000
C -16.830664 16.545623 3.000000
C -18.000830 15.771665 3.000000
C -18.171199 18.572410 3.000000
C -19.341365 17.798452 3.000000
C -19.511734 20.599197 3.000000
C -20.681900 19.825239 3.000000
C -20.852269 22.625984 3.000000
C -22.022435 21.852026 3.000000
C -22.192804 24.652771 3.000000
C -23.362970 23.878813 3.000000
C -23.533339 26.679558 3.000000
C -24.703506 25.905600 3.000000
C -24.873875 28.706345 3.000000
C -26.044041 27.932387 3.000000
C -26.214410 30.733132 3.000000
C -27.384576 29.959174 3.000000
C -27.554945 32.759919 3.000000
C -28.725111 31.985961 3.000000
C -28.895480 34.786706 3.000000
C -30.065646 34.012748 3.000000
C -30.236015 36.813493 3.000000
C -31.406181 36.039535 3.000000
C -31.576550 38.840280 3.000000
C -32.746716 38.066322 3.000000
C -32.917085 40.867068 3.000000
C -34.087251 40.093109 3.000000
C -34.257620 42.893855 3.000000
C -35.427786 42.119896 3.000000
C -35.598155 44.920642 3.000000
C -3.680867 0.478870 3.000000
C -5.021402 2.505658 3.000000
C -6.191568 1.731699 3.000000
C -6.361937 4.532445 3.000000
C -7.532103 3.758486 3.000000
C -7.702472 6.559232 3.000000
C -8.872638 5.785273 3.000000
C -9.043007 8.586019 3.000000
C -10.213173 7.812060 3.000000
C -10.383542 10.612806 3.000000
C -11.553708 9.838847 3.000000
C -11.724077 12.639593 3.000000
C -12.894244 11.865635 3.000000
C -13.064613 14.666380 3.000000
C -14.234779 13.892422 3.000000
C -14.405148 16.693167 3.000000
C -15.575314 15.919209 3.000000
C -15.745683 18.719954 3.000000
C -16.915849 17.945996 3.000000
C -17.086218 20.746741 3.000000
C -18.256384 19.972783 3.000000
C -18.426753 22.773528 3.000000
C -19.596919 21.999570 3.000000
C -19.767288 24.800315 3.000000
C -20.937454 24.026357 3.000000
C -21.107823 26.827102 3.000000
C -22.277989 26.053144 3.000000
C -22.448358 28.853889 3.000000
C -23.618524 28.079931 3.000000
C -23.788893 30.880676 3.000000
C -24.959059 30.106718 3.000000
C -25.129428 32.907463 3.000000
C -26.299594 32.133505 3.000000
C -26.469963 34.934250 3.000000
C -27.640129 34.160292 3.000000
C -27.810498 36.961037 3.000000
C -28.980664 36.187079 3.000000
C -29.151033 38.987824 3.000000
C -30.321199 38.213866 3.000000
C -30.491568 41.014611 3.000000
C -31.661734 40.240653 3.000000
C -31.832103 43.041398 3.000000
C -33.002269 42.267440 3.000000
C -33.172638 45.068186 3.000000
C -34.342804 44.294227 3.000000
C -34.513173 47.094973 3.000000
C -35.683339 46.321014 3.000000
C -35.853708 49.121760 3.000000
C -2.425517 -0.147544 3.000000
C -2.595886 2.653201 3.000000
C -3.766052 1.879243 3.000000
C -3.936421 4.679988 3.000000
C -5.106587 3.906030 3.000000
C -5.276956 6.706776 3.000000
C -6.447122 5.932817 3.000000
C -6.617491 8.733563 3.000000
C -7.787657 7.959604 3.000000
C -7.958026 10.760350 3.000000
C -9.128192 9.986391 3.000000
C -9.298561 12.787137 3.000000
C -10.468727 12.013178 3.000000
C -10.639096 14.813924 3.000000
C -11.809262 14.039965 3.000000
C -11.979631 16.840711 3.000000
C -13.149797 16.066752 3.000000
C -13.320166 18.867498 3.000000
C -14.490332 18.093540 3.000000
C -14.660701 20.894285 3.000000
C -15.830867 20.120327 3.000000
C -16.001236 22.921072 3.000000
C -17.171402 22.147114 3.000000
C -17.341771 24.947859 3.000000
C -18.511937 24.173901 3.000000
C -18.682306 26.974646 3.000000
C -19.852472 26.200688 3.000000
C -20.022841 29.001433 3.000000
C -21.193007 28.227475 3.000000
C -21.363376 31.028220 3.000000
C -22.533542 30.254262 3.000000
C -22.703911 33.055007 3.000000
C -23.874077 32.281049 3.000000
C -24.044446 35.081794 3.000000
C -25.214613 34.307836 3.000000
C -25.384982 37.108581 3.000000
C -26.555148 36.334623 3.000000
C -26.725517 39.135368 3.000000
C -27.895683 38.361410 3.000000
C -28.066052 41.162155 3.000000
C -29.236218 40.388197 3.000000
C -29.406587 43.188942 3.000000
C -30.576753 42.414984 3.000000
C -30.747122 45.215729 3.000000
C -31.917288 44.441771 3.000000
C -32.087657 47.242516 3.000000
C -33.257823 46.468558 3.000000
C -33.428192 49.269303 3.000000
C -34.598358 48.495345 3.000000
C -34.768727 51.296091 3.000000
C -35.938893 50.522132 3.000000
C -36.109262 53.322878 3.000000
C -2.681070 4.053574 3.000000
C -2.851439 6.854319 3.000000
C -4.021605 6.080361 3.000000
C -4.191974 8.881106 3.000000
C -5.362140 8.107148 3.000000
C -5.532509 10.907893 3.000000
C -6.702675 10.133935 3.000000
C -6.873044 12.934681 3.000000
C -8.043210 12.160722 3.000000
C -8.213579 14.961468 3.000000
C -9.383745 14.187509 3.000000
C -9.554114 16.988255 3.000000
C -10.724280 16.214296 3.000000
C -10.894649 19.015042 3.000000
C -12.064815 18.241083 3.000000
C -12.235184 21.041829 3.000000
C -13.405351 20.267870 3.000000
C -13.575720 23.068616 3.000000
C -14.745886 22.294658 3.000000
C -14.916255 25.095403 3.000000
C -16.086421 24.321445 3.000000
C -16.256790 27.122190 3.000000
C -17.426956 26.348232 3.000000
C -17.597325 29.148977 3.000000
C -18.767491 28.375019 3.000000
C -18.937860 31.175764 3.000000
C -20.108026 30.401806 3.000000
C -20.278395 33.202551 3.000000
C -21.448561 32.428593 3.000000
C -21.618930 35.229338 3.000000
C -22.789096 34.455380 3.000000
C -22.959465 37.256125 3.000000
C -24.129631 36.482167 3.000000
C -24.300000 39.282912 3.000000
C -25.470166 38.508954 3.000000
C -25.640535 41.309699 3.000000
C -26.810701 40.535741 3.000000
C -26.981070 43.336486 3.000000
C -28.151236 42.562528 3.000000
C -28.321605 45.363273 3.000000
C -29.491771 44.589315 3.000000
C -29.662140 47.390060 3.000000
C -30.832306 46.616102 3.000000
C -31.002675 49.416847 3.000000
C -32.172841 48.642889 3.000000
C -32.343210 51.443634 3.000000
C -33.513376 50.669676 3.000000
C -33.683745 53.470421 3.000000
C -34.853911 52.696463 3.000000
C -35.024280 55.497209 3.000000
C -36.194446 54.723250 3.000000
C -2.936624 8.254692 3.000000
C -3.106993 11.055437 3.000000
C -4.277159 10.281479 3.000000
C -4.447528 13.082224 3.000000
C -5.617694 12.308266 3.000000
C -5.788063 15.109011 3.000000
C -6.958229 14.335053 3.000000
C -7.128598 17.135799 3.000000
C -8.298764 16.361840 3.000000
C -8.469133 19.162586 3.000000
C -9.639299 18.388627 3.000000
C -9.809668 21.189373 3.000000
C -10.979834 20.415414 3.000000
C -11.150203 23.216160 3.000000
C -12.320369 22.442201 3.000000
C -12.490738 25.242947 3.000000
C -13.660904 24.468988 3.000000
C -13.831273 27.269734 3.000000
C -15.001439 26.495775 3.000000
C -15.171808 29.296521 3.000000
C -16.341974 28.522563 3.000000
C -16.512343 31.323308 3.000000
C -17.682509 30.549350 3.000000
C -17.852878 33.350095 3.000000
C -19.023044 32.576137 3.000000
C -19.193413 35.376882 3.000000
C -20.363579 34.602924 3.000000
C -20.533948 37.403669 3.000000
C -21.704114 36.629711 3.000000
C -21.874483 39.430456 3.000000
C -23.044649 38.656498 3.000000
C -23.215018 41.457243 3.000000
C -24.385184 40.683285 3.000000
C -24.555553 43.484030 3.000000
C -25.725720 42.710072 3.000000
C -25.896089 45.510817 3.000000
C -27.066255 44.736859 3.000000
C -27.236624 47.537604 3.000000
C -28.406790 46.763646 3.000000
C -28.577159 49.564391 3.000000
C -29.747325 48.790433 3.000000
C -29.917694 51.591178 3.000000
C -31.087860 50.817220 3.000000
C -31.258229 53.617965 3.000000
C -32.428395 52.844007 3.000000
C -33.768930 54.870794 3.000000
C -1.851642 10.429023 3.000000
C -2.022011 13.229768 3.000000
C -3.192177 12.455810 3.000000
C -3.362546 15.256555 3.000000
C -4.532712 14.482597 3.000000
C -4.703081 17.283342 3.000000