&CONTROL
  calculation  = "relax",
  prefix       = "tBLG",
  pseudo_dir   = ".",
  outdir       = ".",
  verbosity='high'
/
&SYSTEM
  ibrav     = 0,
  celldm(1) = 4.592,
  nat       = 28,
  ntyp      = 1,
  ecutwfc   = 60,
  vdw_corr = 'grimme-d2'
  occupations = 'smearing'
  smearing = 'gaussian'
  degauss = 0.001
/
&ELECTRONS
  conv_thr    = 1.D-10,
  mixing_beta = 0.7D0,
/
&IONS
 ion_dynamics='bfgs',
/

CELL_PARAMETERS {alat}
-0.500000 2.598076 0.000000
-2.500000 0.866025 0.000000
0.0  0.0       10.2880658

ATOMIC_SPECIES
C 12 C.UPF

ATOMIC_POSITIONS {Angstrom}
C -6.075000 0.701481 0.000000
C -7.290000 2.805922 0.000000
C -3.645000 0.701481 0.000000
C -4.860000 0.000000 0.000000
C -4.860000 2.805922 0.000000
C -6.075000 2.104442 0.000000
C -6.075000 4.910364 0.000000
C -7.290000 4.208883 0.000000
C -2.430000 0.000000 0.000000
C -2.430000 2.805922 0.000000
C -3.645000 2.104442 0.000000
C -3.645000 4.910364 0.000000
C -4.860000 4.208883 0.000000
C -2.430000 4.208883 0.000000
C -3.645000 -0.701481 3.000000
C -5.554286 0.801692 3.000000
C -7.463571 2.304865 3.000000
C -2.256429 -0.901904 3.000000
C -3.297857 1.703596 3.000000
C -4.165714 0.601269 3.000000
C -5.207143 3.206768 3.000000
C -6.075000 2.104442 3.000000
C -7.116429 4.709941 3.000000
C -1.909286 1.503173 3.000000
C -2.950714 4.108672 3.000000
C -3.818571 3.006345 3.000000
C -5.727857 4.509518 3.000000
C -1.562143 3.908249 3.000000

K_POINTS {automatic}
25 25 1 0 0 0
