Label
1.0
5.007265896000 -4.336419450490 0.000000000000
6.259082370000 2.168209725245 0.000000000000
0.000000000000 0.000000000000 25.000000000000
N B Se Mo 
7 7 8 4 
Cartesian
-3.755449422000 0.722736572190 0.000000000000
0.000000000000 -1.445473153050 0.000000000000
-1.251816474000 0.722736572190 0.000000000000
2.503632948000 -1.445473153050 0.000000000000
1.251816474000 0.722736572190 0.000000000000
5.007265896000 -1.445473153050 0.000000000000
3.755449422000 0.722736572190 0.000000000000
-2.503632948000 0.000000000000 0.000000000000
1.251816474000 -2.168209725240 0.000000000000
0.000000000000 0.000000000000 0.000000000000
3.755449422000 -2.168209725240 0.000000000000
2.503632948000 0.000000000000 0.000000000000
1.251816474000 2.168209725240 0.000000000000
5.007265896000 0.000000000000 0.000000000000
3.755791972510 -5.781670090990 11.310456800000
3.755791972510 -5.781670090990 9.103148650000
1.252030570170 -3.613608705420 11.310456800000
1.252030570170 -3.613608705420 9.103148650000
6.885268922850 -4.697379806710 11.310456800000
6.885268922850 -4.697379806710 9.103148650000
4.381507520520 -2.529318421140 11.310456800000
4.381507520520 -2.529318421140 9.103148650000
5.007522804670 -4.336122771140 10.206802725000
2.503761402330 -2.168061385570 10.206802725000
8.136999755010 -3.251832486860 10.206802725000
5.633238352680 -1.083771101290 10.206802725000
