&CONTROL
  calculation  = "scf"
  prefix       = "lego"
  pseudo_dir   = "."
  outdir       = "."
  verbosity="high"
/
&SYSTEM
  ibrav     = 0
  celldm(1) = 5.888399
  nat       = 762
  ntyp      = 1
  vdw_corr = "grimme-d2"
  ecutwfc   = 60
  ecutrho = 600
/
&ELECTRONS
  conv_thr    = 1.D-8
  mixing_beta = 0.3D0
/
&IONS
 ion_dynamics="bfgs"
/

CELL_PARAMETERS {alat}
-0.5	11.25833	0.0
-10.0	5.196152	0.0
0.0	0.0	10.0

ATOMIC_SPECIES
xxxxxxx
xxxxxxx
xxxxxx

ATOMIC_POSITIONS {Angstrom}
S1  -31.16  14.392187  4.344408
S2  -31.16  14.392187  7.43464
S1  -32.718  17.090723  4.344408
S2  -32.718  17.090723  7.43464
S1  -26.486  11.693652  4.344408
S2  -26.486  11.693652  7.43464
S1  -28.044  14.392187  4.344408
S2  -28.044  14.392187  7.43464
Mo  -29.602  13.492676  5.889524
S1  -29.602  17.090723  4.344408
S2  -29.602  17.090723  7.43464
Mo  -31.16  16.191211  5.889524
S1  -31.16  19.789258  4.344408
S2  -31.16  19.789258  7.43464
Mo  -32.718  18.889746  5.889524
S1  -32.718  22.487793  4.344408
S2  -32.718  22.487793  7.43464
S1  -21.812  8.995117  4.344408
S2  -21.812  8.995117  7.43464
S1  -23.37  11.693652  4.344408
S2  -23.37  11.693652  7.43464
Mo  -24.928  10.794141  5.889524
S1  -24.928  14.392187  4.344408
S2  -24.928  14.392187  7.43464
Mo  -26.486  13.492676  5.889524
S1  -26.486  17.090723  4.344408
S2  -26.486  17.090723  7.43464
Mo  -28.044  16.191211  5.889524
S1  -28.044  19.789258  4.344408
S2  -28.044  19.789258  7.43464
Mo  -29.602  18.889746  5.889524
S1  -29.602  22.487793  4.344408
S2  -29.602  22.487793  7.43464
Mo  -31.16  21.588281  5.889524
S1  -31.16  25.186328  4.344408
S2  -31.16  25.186328  7.43464
Mo  -32.718  24.286816  5.889524
S1  -32.718  27.884863  4.344408
S2  -32.718  27.884863  7.43464
Mo  -34.276  26.985351  5.889524
S1  -34.276  30.583398  4.344408
S2  -34.276  30.583398  7.43464
S1  -17.138  6.296582  4.344408
S2  -17.138  6.296582  7.43464
S1  -18.696  8.995117  4.344408
S2  -18.696  8.995117  7.43464
Mo  -20.254  8.095605  5.889524
S1  -20.254  11.693652  4.344408
S2  -20.254  11.693652  7.43464
Mo  -21.812  10.794141  5.889524
S1  -21.812  14.392187  4.344408
S2  -21.812  14.392187  7.43464
Mo  -23.37  13.492676  5.889524
S1  -23.37  17.090723  4.344408
S2  -23.37  17.090723  7.43464
Mo  -24.928  16.191211  5.889524
S1  -24.928  19.789258  4.344408
S2  -24.928  19.789258  7.43464
Mo  -26.486  18.889746  5.889524
S1  -26.486  22.487793  4.344408
S2  -26.486  22.487793  7.43464
Mo  -28.044  21.588281  5.889524
S1  -28.044  25.186328  4.344408
S2  -28.044  25.186328  7.43464
Mo  -29.602  24.286816  5.889524
S1  -29.602  27.884863  4.344408
S2  -29.602  27.884863  7.43464
Mo  -31.16  26.985351  5.889524
S1  -31.16  30.583398  4.344408
S2  -31.16  30.583398  7.43464
Mo  -32.718  29.683887  5.889524
S1  -32.718  33.281933  4.344408
S2  -32.718  33.281933  7.43464
Mo  -34.276  32.382422  5.889524
S1  -34.276  35.980469  4.344408
S2  -34.276  35.980469  7.43464
S1  -12.464  3.598047  4.344408
S2  -12.464  3.598047  7.43464
S1  -14.022  6.296582  4.344408
S2  -14.022  6.296582  7.43464
Mo  -15.58  5.39707  5.889524
S1  -15.58  8.995117  4.344408
S2  -15.58  8.995117  7.43464
Mo  -17.138  8.095605  5.889524
S1  -17.138  11.693652  4.344408
S2  -17.138  11.693652  7.43464
Mo  -18.696  10.794141  5.889524
S1  -18.696  14.392187  4.344408
S2  -18.696  14.392187  7.43464
Mo  -20.254  13.492676  5.889524
S1  -20.254  17.090723  4.344408
S2  -20.254  17.090723  7.43464
Mo  -21.812  16.191211  5.889524
S1  -21.812  19.789258  4.344408
S2  -21.812  19.789258  7.43464
Mo  -23.37  18.889746  5.889524
S1  -23.37  22.487793  4.344408
S2  -23.37  22.487793  7.43464
Mo  -24.928  21.588281  5.889524
S1  -24.928  25.186328  4.344408
S2  -24.928  25.186328  7.43464
Mo  -26.486  24.286816  5.889524
S1  -26.486  27.884863  4.344408
S2  -26.486  27.884863  7.43464
Mo  -28.044  26.985351  5.889524
S1  -28.044  30.583398  4.344408
S2  -28.044  30.583398  7.43464
Mo  -29.602  29.683887  5.889524
S1  -29.602  33.281933  4.344408
S2  -29.602  33.281933  7.43464
Mo  -31.16  32.382422  5.889524
S1  -31.16  35.980469  4.344408
S2  -31.16  35.980469  7.43464
Mo  -32.718  35.080957  5.889524
S1  -32.718  38.679004  4.344408
S2  -32.718  38.679004  7.43464
Mo  -34.276  37.779492  5.889524
S1  -34.276  41.377539  4.344408
S2  -34.276  41.377539  7.43464
S1  -9.348  3.598047  4.344408
S2  -9.348  3.598047  7.43464
Mo  -10.906  2.698535  5.889524
S1  -10.906  6.296582  4.344408
S2  -10.906  6.296582  7.43464
Mo  -12.464  5.39707  5.889524
S1  -12.464  8.995117  4.344408
S2  -12.464  8.995117  7.43464
Mo  -14.022  8.095605  5.889524
S1  -14.022  11.693652  4.344408
S2  -14.022  11.693652  7.43464
Mo  -15.58  10.794141  5.889524
S1  -15.58  14.392187  4.344408
S2  -15.58  14.392187  7.43464
Mo  -17.138  13.492676  5.889524
S1  -17.138  17.090723  4.344408
S2  -17.138  17.090723  7.43464
Mo  -18.696  16.191211  5.889524
S1  -18.696  19.789258  4.344408
S2  -18.696  19.789258  7.43464
Mo  -20.254  18.889746  5.889524
S1  -20.254  22.487793  4.344408
S2  -20.254  22.487793  7.43464
Mo  -21.812  21.588281  5.889524
S1  -21.812  25.186328  4.344408
S2  -21.812  25.186328  7.43464
Mo  -23.37  24.286816  5.889524
S1  -23.37  27.884863  4.344408
S2  -23.37  27.884863  7.43464
Mo  -24.928  26.985351  5.889524
S1  -24.928  30.583398  4.344408
S2  -24.928  30.583398  7.43464
Mo  -26.486  29.683887  5.889524
S1  -26.486  33.281933  4.344408
S2  -26.486  33.281933  7.43464
Mo  -28.044  32.382422  5.889524
S1  -28.044  35.980469  4.344408
S2  -28.044  35.980469  7.43464
Mo  -29.602  35.080957  5.889524
S1  -29.602  38.679004  4.344408
S2  -29.602  38.679004  7.43464
Mo  -31.16  37.779492  5.889524
S1  -31.16  41.377539  4.344408
S2  -31.16  41.377539  7.43464
Mo  -32.718  40.478027  5.889524
S1  -32.718  44.076074  4.344408
S2  -32.718  44.076074  7.43464
Mo  -34.276  43.176562  5.889524
S1  -34.276  46.774609  4.344408
S2  -34.276  46.774609  7.43464
S1  -4.674  0.899512  4.344408
S2  -4.674  0.899512  7.43464
S1  -6.232  3.598047  4.344408
S2  -6.232  3.598047  7.43464
Mo  -7.79  2.698535  5.889524
S1  -7.79  6.296582  4.344408
S2  -7.79  6.296582  7.43464
Mo  -9.348  5.39707  5.889524
S1  -9.348  8.995117  4.344408
S2  -9.348  8.995117  7.43464
Mo  -10.906  8.095605  5.889524
S1  -10.906  11.693652  4.344408
S2  -10.906  11.693652  7.43464
Mo  -12.464  10.794141  5.889524
S1  -12.464  14.392187  4.344408
S2  -12.464  14.392187  7.43464
Mo  -14.022  13.492676  5.889524
S1  -14.022  17.090723  4.344408
S2  -14.022  17.090723  7.43464
Mo  -15.58  16.191211  5.889524
S1  -15.58  19.789258  4.344408
S2  -15.58  19.789258  7.43464
Mo  -17.138  18.889746  5.889524
S1  -17.138  22.487793  4.344408
S2  -17.138  22.487793  7.43464
Mo  -18.696  21.588281  5.889524
S1  -18.696  25.186328  4.344408
S2  -18.696  25.186328  7.43464
Mo  -20.254  24.286816  5.889524
S1  -20.254  27.884863  4.344408
S2  -20.254  27.884863  7.43464
Mo  -21.812  26.985351  5.889524
S1  -21.812  30.583398  4.344408
S2  -21.812  30.583398  7.43464
Mo  -23.37  29.683887  5.889524
S1  -23.37  33.281933  4.344408
S2  -23.37  33.281933  7.43464
Mo  -24.928  32.382422  5.889524
S1  -24.928  35.980469  4.344408
S2  -24.928  35.980469  7.43464
Mo  -26.486  35.080957  5.889524
S1  -26.486  38.679004  4.344408
S2  -26.486  38.679004  7.43464
Mo  -28.044  37.779492  5.889524
S1  -28.044  41.377539  4.344408
S2  -28.044  41.377539  7.43464
Mo  -29.602  40.478027  5.889524
S1  -29.602  44.076074  4.344408
S2  -29.602  44.076074  7.43464
Mo  -31.16  43.176562  5.889524
S1  -31.16  46.774609  4.344408
S2  -31.16  46.774609  7.43464
Mo  -32.718  45.875097  5.889524
Mo  -34.276  48.573633  5.889524
Mo  -3.116  0.0  5.889524
S1  -3.116  3.598047  4.344408
S2  -3.116  3.598047  7.43464
Mo  -4.674  2.698535  5.889524
S1  -4.674  6.296582  4.344408
S2  -4.674  6.296582  7.43464
Mo  -6.232  5.39707  5.889524
S1  -6.232  8.995117  4.344408
S2  -6.232  8.995117  7.43464
Mo  -7.79  8.095605  5.889524
S1  -7.79  11.693652  4.344408
S2  -7.79  11.693652  7.43464
Mo  -9.348  10.794141  5.889524
S1  -9.348  14.392187  4.344408
S2  -9.348  14.392187  7.43464
Mo  -10.906  13.492676  5.889524
S1  -10.906  17.090723  4.344408
S2  -10.906  17.090723  7.43464
Mo  -12.464  16.191211  5.889524
S1  -12.464  19.789258  4.344408
S2  -12.464  19.789258  7.43464
Mo  -14.022  18.889746  5.889524
S1  -14.022  22.487793  4.344408
S2  -14.022  22.487793  7.43464
Mo  -15.58  21.588281  5.889524
S1  -15.58  25.186328  4.344408
S2  -15.58  25.186328  7.43464
Mo  -17.138  24.286816  5.889524
S1  -17.138  27.884863  4.344408
S2  -17.138  27.884863  7.43464
Mo  -18.696  26.985351  5.889524
S1  -18.696  30.583398  4.344408
S2  -18.696  30.583398  7.43464
Mo  -20.254  29.683887  5.889524
S1  -20.254  33.281933  4.344408
S2  -20.254  33.281933  7.43464
Mo  -21.812  32.382422  5.889524
S1  -21.812  35.980469  4.344408
S2  -21.812  35.980469  7.43464
Mo  -23.37  35.080957  5.889524
S1  -23.37  38.679004  4.344408
S2  -23.37  38.679004  7.43464
Mo  -24.928  37.779492  5.889524
S1  -24.928  41.377539  4.344408
S2  -24.928  41.377539  7.43464
Mo  -26.486  40.478027  5.889524
S1  -26.486  44.076074  4.344408
S2  -26.486  44.076074  7.43464
Mo  -28.044  43.176562  5.889524
Mo  -29.602  45.875097  5.889524
Mo  -3.116  5.39707  5.889524
S1  -3.116  8.995117  4.344408
S2  -3.116  8.995117  7.43464
Mo  -4.674  8.095605  5.889524
S1  -4.674  11.693652  4.344408
S2  -4.674  11.693652  7.43464
Mo  -6.232  10.794141  5.889524
S1  -6.232  14.392187  4.344408
S2  -6.232  14.392187  7.43464
Mo  -7.79  13.492676  5.889524
S1  -7.79  17.090723  4.344408
S2  -7.79  17.090723  7.43464
Mo  -9.348  16.191211  5.889524
S1  -9.348  19.789258  4.344408
S2  -9.348  19.789258  7.43464
Mo  -10.906  18.889746  5.889524
S1  -10.906  22.487793  4.344408
S2  -10.906  22.487793  7.43464
Mo  -12.464  21.588281  5.889524
S1  -12.464  25.186328  4.344408
S2  -12.464  25.186328  7.43464
Mo  -14.022  24.286816  5.889524
S1  -14.022  27.884863  4.344408
S2  -14.022  27.884863  7.43464
Mo  -15.58  26.985351  5.889524
S1  -15.58  30.583398  4.344408
S2  -15.58  30.583398  7.43464
Mo  -17.138  29.683887  5.889524
S1  -17.138  33.281933  4.344408
S2  -17.138  33.281933  7.43464
Mo  -18.696  32.382422  5.889524
S1  -18.696  35.980469  4.344408
S2  -18.696  35.980469  7.43464
Mo  -20.254  35.080957  5.889524
S1  -20.254  38.679004  4.344408
S2  -20.254  38.679004  7.43464
Mo  -21.812  37.779492  5.889524
S1  -21.812  41.377539  4.344408
S2  -21.812  41.377539  7.43464
Mo  -23.37  40.478027  5.889524
Mo  -24.928  43.176562  5.889524
Mo  -4.674  13.492676  5.889524
S1  -4.674  17.090723  4.344408
S2  -4.674  17.090723  7.43464
Mo  -6.232  16.191211  5.889524
S1  -6.232  19.789258  4.344408
S2  -6.232  19.789258  7.43464
Mo  -7.79  18.889746  5.889524
S1  -7.79  22.487793  4.344408
S2  -7.79  22.487793  7.43464
Mo  -9.348  21.588281  5.889524
S1  -9.348  25.186328  4.344408
S2  -9.348  25.186328  7.43464
Mo  -10.906  24.286816  5.889524
S1  -10.906  27.884863  4.344408
S2  -10.906  27.884863  7.43464
Mo  -12.464  26.985351  5.889524
S1  -12.464  30.583398  4.344408
S2  -12.464  30.583398  7.43464
Mo  -14.022  29.683887  5.889524
S1  -14.022  33.281933  4.344408
S2  -14.022  33.281933  7.43464
Mo  -15.58  32.382422  5.889524
S1  -15.58  35.980469  4.344408
S2  -15.58  35.980469  7.43464
Mo  -17.138  35.080957  5.889524
S1  -17.138  38.679004  4.344408
S2  -17.138  38.679004  7.43464
Mo  -18.696  37.779492  5.889524
Mo  -20.254  40.478027  5.889524
Mo  -4.674  18.889746  5.889524
S1  -4.674  22.487793  4.344408
S2  -4.674  22.487793  7.43464
Mo  -6.232  21.588281  5.889524
S1  -6.232  25.186328  4.344408
S2  -6.232  25.186328  7.43464
Mo  -7.79  24.286816  5.889524
S1  -7.79  27.884863  4.344408
S2  -7.79  27.884863  7.43464
Mo  -9.348  26.985351  5.889524
S1  -9.348  30.583398  4.344408
S2  -9.348  30.583398  7.43464
Mo  -10.906  29.683887  5.889524
S1  -10.906  33.281933  4.344408
S2  -10.906  33.281933  7.43464
Mo  -12.464  32.382422  5.889524
S1  -12.464  35.980469  4.344408
S2  -12.464  35.980469  7.43464
Mo  -14.022  35.080957  5.889524
Mo  -15.58  37.779492  5.889524
Mo  -4.674  24.286816  5.889524
S1  -4.674  27.884863  4.344408
S2  -4.674  27.884863  7.43464
Mo  -6.232  26.985351  5.889524
S1  -6.232  30.583398  4.344408
S2  -6.232  30.583398  7.43464
Mo  -7.79  29.683887  5.889524
S1  -7.79  33.281933  4.344408
S2  -7.79  33.281933  7.43464
Mo  -9.348  32.382422  5.889524
S1  -9.348  35.980469  4.344408
S2  -9.348  35.980469  7.43464
Mo  -10.906  35.080957  5.889524
Mo  -4.674  29.683887  5.889524
S1  -4.674  33.281933  4.344408
S2  -4.674  33.281933  7.43464
Mo  -6.232  32.382422  5.889524
Mo  -7.79  35.080957  5.889524
S1  -32.632129  15.15712  10.244408
S2  -32.632129  15.15712  13.33464
S1  -27.73731  12.883552  10.244408
S2  -27.73731  12.883552  13.33464
Mo  -29.368916  13.641408  11.789524
S1  -29.528397  15.433348  10.244408
S2  -29.528397  15.433348  13.33464
Mo  -31.160003  16.191204  11.789524
S1  -31.319484  17.983145  10.244408
S2  -31.319484  17.983145  13.33464
Mo  -32.951091  18.741001  11.789524
S1  -33.110571  20.532942  10.244408
S2  -33.110571  20.532942  13.33464
S1  -21.051403  8.060187  10.244408
S2  -21.051403  8.060187  13.33464
Mo  -22.68301  8.818043  11.789524
S1  -22.84249  10.609984  10.244408
S2  -22.84249  10.609984  13.33464
Mo  -24.474097  11.36784  11.789524
S1  -24.633578  13.15978  10.244408
S2  -24.633578  13.15978  13.33464
Mo  -26.265184  13.917636  11.789524
S1  -26.424665  15.709577  10.244408
S2  -26.424665  15.709577  13.33464
Mo  -28.056271  16.467433  11.789524
S1  -28.215752  18.259374  10.244408
S2  -28.215752  18.259374  13.33464
Mo  -29.847358  19.01723  11.789524
S1  -30.006839  20.80917  10.244408
S2  -30.006839  20.80917  13.33464
Mo  -31.638445  21.567026  11.789524
S1  -31.797926  23.358967  10.244408
S2  -31.797926  23.358967  13.33464
Mo  -33.429533  24.116823  11.789524
S1  -33.589013  25.908763  10.244408
S2  -33.589013  25.908763  13.33464
S1  -16.156584  5.786619  10.244408
S2  -16.156584  5.786619  13.33464
Mo  -17.78819  6.544475  11.789524
S1  -17.947671  8.336416  10.244408
S2  -17.947671  8.336416  13.33464
Mo  -19.579278  9.094272  11.789524
S1  -19.738758  10.886212  10.244408
S2  -19.738758  10.886212  13.33464
Mo  -21.370365  11.644068  11.789524
S1  -21.529845  13.436009  10.244408
S2  -21.529845  13.436009  13.33464
Mo  -23.161452  14.193865  11.789524
S1  -23.320932  15.985806  10.244408
S2  -23.320932  15.985806  13.33464
Mo  -24.952539  16.743662  11.789524
S1  -25.11202  18.535602  10.244408
S2  -25.11202  18.535602  13.33464
Mo  -26.743626  19.293458  11.789524
S1  -26.903107  21.085399  10.244408
S2  -26.903107  21.085399  13.33464
Mo  -28.534713  21.843255  11.789524
S1  -28.694194  23.635195  10.244408
S2  -28.694194  23.635195  13.33464
Mo  -30.3258  24.393051  11.789524
S1  -30.485281  26.184992  10.244408
S2  -30.485281  26.184992  13.33464
Mo  -32.116888  26.942848  11.789524
S1  -32.276368  28.734789  10.244408
S2  -32.276368  28.734789  13.33464
Mo  -33.907975  29.492645  11.789524
S1  -34.067455  31.284585  10.244408
S2  -34.067455  31.284585  13.33464
S1  -11.261765  3.513051  10.244408
S2  -11.261765  3.513051  13.33464
Mo  -12.893371  4.270907  11.789524
S1  -13.052852  6.062848  10.244408
S2  -13.052852  6.062848  13.33464
Mo  -14.684458  6.820704  11.789524
S1  -14.843939  8.612644  10.244408
S2  -14.843939  8.612644  13.33464
Mo  -16.475545  9.3705  11.789524
S1  -16.635026  11.162441  10.244408
S2  -16.635026  11.162441  13.33464
Mo  -18.266632  11.920297  11.789524
S1  -18.426113  13.712238  10.244408
S2  -18.426113  13.712238  13.33464
Mo  -20.05772  14.470094  11.789524
S1  -20.2172  16.262034  10.244408
S2  -20.2172  16.262034  13.33464
Mo  -21.848807  17.01989  11.789524
S1  -22.008287  18.811831  10.244408
S2  -22.008287  18.811831  13.33464
Mo  -23.639894  19.569687  11.789524
S1  -23.799375  21.361628  10.244408
S2  -23.799375  21.361628  13.33464
Mo  -25.430981  22.119484  11.789524
S1  -25.590462  23.911424  10.244408
S2  -25.590462  23.911424  13.33464
Mo  -27.222068  24.66928  11.789524
S1  -27.381549  26.461221  10.244408
S2  -27.381549  26.461221  13.33464
Mo  -29.013155  27.219077  11.789524
S1  -29.172636  29.011017  10.244408
S2  -29.172636  29.011017  13.33464
Mo  -30.804242  29.768873  11.789524
S1  -30.963723  31.560814  10.244408
S2  -30.963723  31.560814  13.33464
Mo  -32.59533  32.31867  11.789524
S1  -32.75481  34.110611  10.244408
S2  -32.75481  34.110611  13.33464
Mo  -34.386417  34.868467  11.789524
S1  -34.545897  36.660407  10.244408
S2  -34.545897  36.660407  13.33464
S1  -6.366945  1.239483  10.244408
S2  -6.366945  1.239483  13.33464
Mo  -7.998552  1.997339  11.789524
S1  -8.158032  3.78928  10.244408
S2  -8.158032  3.78928  13.33464
Mo  -9.789639  4.547136  11.789524
S1  -9.949119  6.339077  10.244408
S2  -9.949119  6.339077  13.33464
Mo  -11.580726  7.096933  11.789524
S1  -11.740207  8.888873  10.244408
S2  -11.740207  8.888873  13.33464
Mo  -13.371813  9.646729  11.789524
S1  -13.531294  11.43867  10.244408
S2  -13.531294  11.43867  13.33464
Mo  -15.1629  12.196526  11.789524
S1  -15.322381  13.988466  10.244408
S2  -15.322381  13.988466  13.33464
Mo  -16.953987  14.746322  11.789524
S1  -17.113468  16.538263  10.244408
S2  -17.113468  16.538263  13.33464
Mo  -18.745074  17.296119  11.789524
S1  -18.904555  19.08806  10.244408
S2  -18.904555  19.08806  13.33464
Mo  -20.536162  19.845916  11.789524
S1  -20.695642  21.637856  10.244408
S2  -20.695642  21.637856  13.33464
Mo  -22.327249  22.395712  11.789524
S1  -22.486729  24.187653  10.244408
S2  -22.486729  24.187653  13.33464
Mo  -24.118336  24.945509  11.789524
S1  -24.277817  26.737449  10.244408
S2  -24.277817  26.737449  13.33464
Mo  -25.909423  27.495305  11.789524
S1  -26.068904  29.287246  10.244408
S2  -26.068904  29.287246  13.33464
Mo  -27.70051  30.045102  11.789524
S1  -27.859991  31.837043  10.244408
S2  -27.859991  31.837043  13.33464
Mo  -29.491597  32.594899  11.789524
S1  -29.651078  34.386839  10.244408
S2  -29.651078  34.386839  13.33464
Mo  -31.282685  35.144695  11.789524
S1  -31.442165  36.936636  10.244408
S2  -31.442165  36.936636  13.33464
Mo  -33.073772  37.694492  11.789524
S1  -33.233252  39.486432  10.244408
S2  -33.233252  39.486432  13.33464
Mo  -34.864859  40.244288  11.789524
Mo  -3.103732  -0.276229  11.789524
S1  -3.263213  1.515712  10.244408
S2  -3.263213  1.515712  13.33464
Mo  -4.894819  2.273568  11.789524
S1  -5.0543  4.065509  10.244408
S2  -5.0543  4.065509  13.33464
Mo  -6.685907  4.823365  11.789524
S1  -6.845387  6.615305  10.244408
S2  -6.845387  6.615305  13.33464
Mo  -8.476994  7.373161  11.789524
S1  -8.636474  9.165102  10.244408
S2  -8.636474  9.165102  13.33464
Mo  -10.268081  9.922958  11.789524
S1  -10.427562  11.714898  10.244408
S2  -10.427562  11.714898  13.33464
Mo  -12.059168  12.472754  11.789524
S1  -12.218649  14.264695  10.244408
S2  -12.218649  14.264695  13.33464
Mo  -13.850255  15.022551  11.789524
S1  -14.009736  16.814492  10.244408
S2  -14.009736  16.814492  13.33464
Mo  -15.641342  17.572348  11.789524
S1  -15.800823  19.364288  10.244408
S2  -15.800823  19.364288  13.33464
Mo  -17.432429  20.122144  11.789524
S1  -17.59191  21.914085  10.244408
S2  -17.59191  21.914085  13.33464
Mo  -19.223517  22.671941  11.789524
S1  -19.382997  24.463881  10.244408
S2  -19.382997  24.463881  13.33464
Mo  -21.014604  25.221737  11.789524
S1  -21.174084  27.013678  10.244408
S2  -21.174084  27.013678  13.33464
Mo  -22.805691  27.771534  11.789524
S1  -22.965172  29.563475  10.244408
S2  -22.965172  29.563475  13.33464
Mo  -24.596778  30.321331  11.789524
S1  -24.756259  32.113271  10.244408
S2  -24.756259  32.113271  13.33464
Mo  -26.387865  32.871127  11.789524
S1  -26.547346  34.663068  10.244408
S2  -26.547346  34.663068  13.33464
Mo  -28.178952  35.420924  11.789524
S1  -28.338433  37.212865  10.244408
S2  -28.338433  37.212865  13.33464
Mo  -29.970039  37.970721  11.789524
S1  -30.12952  39.762661  10.244408
S2  -30.12952  39.762661  13.33464
Mo  -31.761127  40.520517  11.789524
S1  -31.920607  42.312458  10.244408
S2  -31.920607  42.312458  13.33464
Mo  -33.552214  43.070314  11.789524
S1  -33.711694  44.862254  10.244408
S2  -33.711694  44.862254  13.33464
Mo  -3.582174  5.099593  11.789524
S1  -3.741655  6.891534  10.244408
S2  -3.741655  6.891534  13.33464
Mo  -5.373261  7.64939  11.789524
S1  -5.532742  9.44133  10.244408
S2  -5.532742  9.44133  13.33464
Mo  -7.164349  10.199186  11.789524
S1  -7.323829  11.991127  10.244408
S2  -7.323829  11.991127  13.33464
Mo  -8.955436  12.748983  11.789524
S1  -9.114916  14.540924  10.244408
S2  -9.114916  14.540924  13.33464
Mo  -10.746523  15.29878  11.789524
S1  -10.906004  17.09072  10.244408
S2  -10.906004  17.09072  13.33464
Mo  -12.53761  17.848576  11.789524
S1  -12.697091  19.640517  10.244408
S2  -12.697091  19.640517  13.33464
Mo  -14.328697  20.398373  11.789524
S1  -14.488178  22.190314  10.244408
S2  -14.488178  22.190314  13.33464
Mo  -16.119784  22.948169  11.789524
S1  -16.279265  24.74011  10.244408
S2  -16.279265  24.74011  13.33464
Mo  -17.910871  25.497966  11.789524
S1  -18.070352  27.289907  10.244408
S2  -18.070352  27.289907  13.33464
Mo  -19.701959  28.047763  11.789524
S1  -19.861439  29.839703  10.244408
S2  -19.861439  29.839703  13.33464
Mo  -21.493046  30.597559  11.789524
S1  -21.652526  32.3895  10.244408
S2  -21.652526  32.3895  13.33464
Mo  -23.284133  33.147356  11.789524
S1  -23.443614  34.939297  10.244408
S2  -23.443614  34.939297  13.33464
Mo  -25.07522  35.697153  11.789524
S1  -25.234701  37.489093  10.244408
S2  -25.234701  37.489093  13.33464
Mo  -26.866307  38.246949  11.789524
S1  -27.025788  40.03889  10.244408
S2  -27.025788  40.03889  13.33464
Mo  -28.657394  40.796746  11.789524
S1  -28.816875  42.588686  10.244408
S2  -28.816875  42.588686  13.33464
Mo  -30.448482  43.346542  11.789524
S1  -30.607962  45.138483  10.244408
S2  -30.607962  45.138483  13.33464
Mo  -32.239569  45.896339  11.789524
S1  -32.399049  47.68828  10.244408
S2  -32.399049  47.68828  13.33464
Mo  -34.030656  48.446136  11.789524
Mo  -4.060616  10.475415  11.789524
S1  -4.220097  12.267356  10.244408
S2  -4.220097  12.267356  13.33464
Mo  -5.851704  13.025212  11.789524
S1  -6.011184  14.817152  10.244408
S2  -6.011184  14.817152  13.33464
Mo  -7.642791  15.575008  11.789524
S1  -7.802271  17.366949  10.244408
S2  -7.802271  17.366949  13.33464
Mo  -9.433878  18.124805  11.789524
S1  -9.593359  19.916746  10.244408
S2  -9.593359  19.916746  13.33464
Mo  -11.224965  20.674602  11.789524
S1  -11.384446  22.466542  10.244408
S2  -11.384446  22.466542  13.33464
Mo  -13.016052  23.224398  11.789524
S1  -13.175533  25.016339  10.244408
S2  -13.175533  25.016339  13.33464
Mo  -14.807139  25.774195  11.789524
S1  -14.96662  27.566135  10.244408
S2  -14.96662  27.566135  13.33464
Mo  -16.598226  28.323991  11.789524
S1  -16.757707  30.115932  10.244408
S2  -16.757707  30.115932  13.33464
Mo  -18.389314  30.873788  11.789524
S1  -18.548794  32.665729  10.244408
S2  -18.548794  32.665729  13.33464
Mo  -20.180401  33.423585  11.789524
S1  -20.339881  35.215525  10.244408
S2  -20.339881  35.215525  13.33464
Mo  -21.971488  35.973381  11.789524
S1  -22.130969  37.765322  10.244408
S2  -22.130969  37.765322  13.33464
Mo  -23.762575  38.523178  11.789524
S1  -23.922056  40.315118  10.244408
S2  -23.922056  40.315118  13.33464
Mo  -25.553662  41.072974  11.789524
S1  -25.713143  42.864915  10.244408
S2  -25.713143  42.864915  13.33464
Mo  -27.344749  43.622771  11.789524
S1  -27.50423  45.414712  10.244408
S2  -27.50423  45.414712  13.33464
Mo  -29.135836  46.172568  11.789524
Mo  -4.539058  15.851237  11.789524
S1  -4.698539  17.643178  10.244408
S2  -4.698539  17.643178  13.33464
Mo  -6.330146  18.401034  11.789524
S1  -6.489626  20.192974  10.244408
S2  -6.489626  20.192974  13.33464
Mo  -8.121233  20.95083  11.789524
S1  -8.280713  22.742771  10.244408
S2  -8.280713  22.742771  13.33464
Mo  -9.91232  23.500627  11.789524
S1  -10.071801  25.292567  10.244408
S2  -10.071801  25.292567  13.33464
Mo  -11.703407  26.050423  11.789524
S1  -11.862888  27.842364  10.244408
S2  -11.862888  27.842364  13.33464
Mo  -13.494494  28.60022  11.789524
S1  -13.653975  30.392161  10.244408
S2  -13.653975  30.392161  13.33464
Mo  -15.285581  31.150017  11.789524
S1  -15.445062  32.941957  10.244408
S2  -15.445062  32.941957  13.33464
Mo  -17.076668  33.699813  11.789524
S1  -17.236149  35.491754  10.244408
S2  -17.236149  35.491754  13.33464
Mo  -18.867756  36.24961  11.789524
S1  -19.027236  38.041551  10.244408
S2  -19.027236  38.041551  13.33464
Mo  -20.658843  38.799406  11.789524
S1  -20.818323  40.591347  10.244408
S2  -20.818323  40.591347  13.33464
Mo  -22.44993  41.349203  11.789524
Mo  -5.017501  21.227059  11.789524
S1  -5.176981  23.018999  10.244408
S2  -5.176981  23.018999  13.33464
Mo  -6.808588  23.776855  11.789524
S1  -6.968068  25.568796  10.244408
S2  -6.968068  25.568796  13.33464
Mo  -8.599675  26.326652  11.789524
S1  -8.759156  28.118593  10.244408
S2  -8.759156  28.118593  13.33464
Mo  -10.390762  28.876449  11.789524
S1  -10.550243  30.668389  10.244408
S2  -10.550243  30.668389  13.33464
Mo  -12.181849  31.426245  11.789524
S1  -12.34133  33.218186  10.244408
S2  -12.34133  33.218186  13.33464
Mo  -13.972936  33.976042  11.789524
S1  -14.132417  35.767983  10.244408
S2  -14.132417  35.767983  13.33464
Mo  -15.764023  36.525839  11.789524
S1  -15.923504  38.317779  10.244408
S2  -15.923504  38.317779  13.33464
Mo  -17.555111  39.075635  11.789524
S1  -3.864336  25.845025  10.244408
S2  -3.864336  25.845025  13.33464
Mo  -5.495943  26.602881  11.789524
S1  -5.655423  28.394821  10.244408
S2  -5.655423  28.394821  13.33464
Mo  -7.28703  29.152677  11.789524
S1  -7.44651  30.944618  10.244408
S2  -7.44651  30.944618  13.33464
Mo  -9.078117  31.702474  11.789524
S1  -9.237598  33.494415  10.244408
S2  -9.237598  33.494415  13.33464
Mo  -10.869204  34.252271  11.789524
S1  -11.028685  36.044211  10.244408
S2  -11.028685  36.044211  13.33464
Mo  -12.660291  36.802067  11.789524
Mo  -4.183298  29.428906  11.789524
S1  -4.342778  31.220847  10.244408
S2  -4.342778  31.220847  13.33464
Mo  -5.974385  31.978703  11.789524
S1  -6.133865  33.770643  10.244408
S2  -6.133865  33.770643  13.33464
Mo  -7.765472  34.528499  11.789524

K_POINTS {GAMMA}