&CONTROL
  calculation  = "scf"
  prefix       = "lego"
  pseudo_dir   = "."
  outdir       = "."
  verbosity="high"
/
&SYSTEM
  ibrav     = 0
  celldm(1) = 5.888386
  nat       = 42
  ntyp      = 1
  vdw_corr = "grimme-d2"
  ecutwfc   = 60
  ecutrho = 600
/
&ELECTRONS
  conv_thr    = 1.D-8
  mixing_beta = 0.3D0
/
&IONS
 ion_dynamics="bfgs"
/

CELL_PARAMETERS {alat}
-0.5	2.5980762	0.0
-2.5	0.8660254	0.0
0.0	0.0	10.0

ATOMIC_SPECIES
xxxxxxx
xxxxxxx
xxxxxx

ATOMIC_POSITIONS {Angstrom}
S1  -7.79  0.89951171187  4.34440811
S2  -7.79  0.89951171187  7.43463952
S1  -9.348  3.59804685827  4.34440811
S2  -9.348  3.59804685827  7.43463952
S1  -10.906  6.29658200467  4.34440811
S2  -10.906  6.29658200467  7.43463952
S1  -4.674  0.89951171187  4.34440811
S2  -4.674  0.89951171187  7.43463952
Mo  -6.232  0.0  5.889523815
S1  -6.232  3.59804685827  4.34440811
S2  -6.232  3.59804685827  7.43463952
Mo  -7.79  2.6985351464  5.889523815
S1  -7.79  6.29658200467  4.34440811
S2  -7.79  6.29658200467  7.43463952
Mo  -9.348  5.3970702928  5.889523815
Mo  -10.906  8.0956054392  5.889523815
Mo  -3.116  0.0  5.889523815
Mo  -4.674  2.6985351464  5.889523815
S1  -4.674  6.29658200467  4.34440811
S2  -4.674  6.29658200467  7.43463952
Mo  -6.232  5.3970702928  5.889523815
S1  -4.6739999972  -0.89951172642  10.24440811
S2  -4.6739999972  -0.89951172642  13.33463952
S1  -7.12228570712  1.02801337561  10.24440811
S2  -7.12228570712  1.02801337561  13.33463952
S1  -9.57057141704  2.95553847763  10.24440811
S2  -9.57057141704  2.95553847763  13.33463952
Mo  -2.89342857142  -1.15651506782  11.789523815
S1  -4.2288571357  2.18452844342  10.24440811
S2  -4.2288571357  2.18452844342  13.33463952
Mo  -5.34171428134  0.77101003421  11.789523815
S1  -6.67714284562  4.11205354545  10.24440811
S2  -6.67714284562  4.11205354545  13.33463952
Mo  -7.78999999127  2.69853513624  11.789523815
S1  -9.12542855555  6.03957864748  10.24440811
S2  -9.12542855555  6.03957864748  13.33463952
Mo  -10.2382857012  4.62606023826  11.789523815
S1  -3.7837142742  5.26856861327  10.24440811
S2  -3.7837142742  5.26856861327  13.33463952
Mo  -4.89657141985  3.85505020405  11.789523815
Mo  -7.34485712977  5.78257530608  11.789523815
Mo  -9.79314283969  7.71010040811  11.789523815

K_POINTS {GAMMA}