&CONTROL
  calculation  = "scf"
  prefix       = "lego"
  pseudo_dir   = "."
  outdir       = "."
  verbosity="high"
/
&SYSTEM
  ibrav     = 0
  celldm(1) = 5.888386
  nat       = 762
  ntyp      = 1
  vdw_corr = "grimme-d2"
  ecutwfc   = 60
  ecutrho = 600
/
&ELECTRONS
  conv_thr    = 1.D-8
  mixing_beta = 0.3D0
/
&IONS
 ion_dynamics="bfgs"
/

CELL_PARAMETERS {alat}
-0.5	11.2583302	0.0
-10.0	5.1961524	0.0
0.0	0.0	10.0

ATOMIC_SPECIES
xxxxxxx
xxxxxxx
xxxxxx

ATOMIC_POSITIONS {Angstrom}
S1  -31.16  14.3921874439  4.34440811
S2  -31.16  14.3921874439  7.43463952
S1  -32.718  17.0907225903  4.34440811
S2  -32.718  17.0907225903  7.43463952
S1  -26.486  11.6936522975  4.34440811
S2  -26.486  11.6936522975  7.43463952
S1  -28.044  14.3921874439  4.34440811
S2  -28.044  14.3921874439  7.43463952
Mo  -29.602  13.492675732  5.889523815
S1  -29.602  17.0907225903  4.34440811
S2  -29.602  17.0907225903  7.43463952
Mo  -31.16  16.1912108784  5.889523815
S1  -31.16  19.7892577367  4.34440811
S2  -31.16  19.7892577367  7.43463952
Mo  -32.718  18.8897460248  5.889523815
S1  -32.718  22.4877928831  4.34440811
S2  -32.718  22.4877928831  7.43463952
S1  -21.812  8.99511715107  4.34440811
S2  -21.812  8.99511715107  7.43463952
S1  -23.37  11.6936522975  4.34440811
S2  -23.37  11.6936522975  7.43463952
Mo  -24.928  10.7941405856  5.889523815
S1  -24.928  14.3921874439  4.34440811
S2  -24.928  14.3921874439  7.43463952
Mo  -26.486  13.492675732  5.889523815
S1  -26.486  17.0907225903  4.34440811
S2  -26.486  17.0907225903  7.43463952
Mo  -28.044  16.1912108784  5.889523815
S1  -28.044  19.7892577367  4.34440811
S2  -28.044  19.7892577367  7.43463952
Mo  -29.602  18.8897460248  5.889523815
S1  -29.602  22.4877928831  4.34440811
S2  -29.602  22.4877928831  7.43463952
Mo  -31.16  21.5882811712  5.889523815
S1  -31.16  25.1863280295  4.34440811
S2  -31.16  25.1863280295  7.43463952
Mo  -32.718  24.2868163176  5.889523815
S1  -32.718  27.8848631759  4.34440811
S2  -32.718  27.8848631759  7.43463952
Mo  -34.276  26.985351464  5.889523815
S1  -34.276  30.5833983223  4.34440811
S2  -34.276  30.5833983223  7.43463952
S1  -17.138  6.29658200467  4.34440811
S2  -17.138  6.29658200467  7.43463952
S1  -18.696  8.99511715107  4.34440811
S2  -18.696  8.99511715107  7.43463952
Mo  -20.254  8.0956054392  5.889523815
S1  -20.254  11.6936522975  4.34440811
S2  -20.254  11.6936522975  7.43463952
Mo  -21.812  10.7941405856  5.889523815
S1  -21.812  14.3921874439  4.34440811
S2  -21.812  14.3921874439  7.43463952
Mo  -23.37  13.492675732  5.889523815
S1  -23.37  17.0907225903  4.34440811
S2  -23.37  17.0907225903  7.43463952
Mo  -24.928  16.1912108784  5.889523815
S1  -24.928  19.7892577367  4.34440811
S2  -24.928  19.7892577367  7.43463952
Mo  -26.486  18.8897460248  5.889523815
S1  -26.486  22.4877928831  4.34440811
S2  -26.486  22.4877928831  7.43463952
Mo  -28.044  21.5882811712  5.889523815
S1  -28.044  25.1863280295  4.34440811
S2  -28.044  25.1863280295  7.43463952
Mo  -29.602  24.2868163176  5.889523815
S1  -29.602  27.8848631759  4.34440811
S2  -29.602  27.8848631759  7.43463952
Mo  -31.16  26.985351464  5.889523815
S1  -31.16  30.5833983223  4.34440811
S2  -31.16  30.5833983223  7.43463952
Mo  -32.718  29.6838866104  5.889523815
S1  -32.718  33.2819334687  4.34440811
S2  -32.718  33.2819334687  7.43463952
Mo  -34.276  32.3824217568  5.889523815
S1  -34.276  35.9804686151  4.34440811
S2  -34.276  35.9804686151  7.43463952
S1  -12.464  3.59804685827  4.34440811
S2  -12.464  3.59804685827  7.43463952
S1  -14.022  6.29658200467  4.34440811
S2  -14.022  6.29658200467  7.43463952
Mo  -15.58  5.3970702928  5.889523815
S1  -15.58  8.99511715107  4.34440811
S2  -15.58  8.99511715107  7.43463952
Mo  -17.138  8.0956054392  5.889523815
S1  -17.138  11.6936522975  4.34440811
S2  -17.138  11.6936522975  7.43463952
Mo  -18.696  10.7941405856  5.889523815
S1  -18.696  14.3921874439  4.34440811
S2  -18.696  14.3921874439  7.43463952
Mo  -20.254  13.492675732  5.889523815
S1  -20.254  17.0907225903  4.34440811
S2  -20.254  17.0907225903  7.43463952
Mo  -21.812  16.1912108784  5.889523815
S1  -21.812  19.7892577367  4.34440811
S2  -21.812  19.7892577367  7.43463952
Mo  -23.37  18.8897460248  5.889523815
S1  -23.37  22.4877928831  4.34440811
S2  -23.37  22.4877928831  7.43463952
Mo  -24.928  21.5882811712  5.889523815
S1  -24.928  25.1863280295  4.34440811
S2  -24.928  25.1863280295  7.43463952
Mo  -26.486  24.2868163176  5.889523815
S1  -26.486  27.8848631759  4.34440811
S2  -26.486  27.8848631759  7.43463952
Mo  -28.044  26.985351464  5.889523815
S1  -28.044  30.5833983223  4.34440811
S2  -28.044  30.5833983223  7.43463952
Mo  -29.602  29.6838866104  5.889523815
S1  -29.602  33.2819334687  4.34440811
S2  -29.602  33.2819334687  7.43463952
Mo  -31.16  32.3824217568  5.889523815
S1  -31.16  35.9804686151  4.34440811
S2  -31.16  35.9804686151  7.43463952
Mo  -32.718  35.0809569032  5.889523815
S1  -32.718  38.6790037615  4.34440811
S2  -32.718  38.6790037615  7.43463952
Mo  -34.276  37.7794920496  5.889523815
S1  -34.276  41.3775389079  4.34440811
S2  -34.276  41.3775389079  7.43463952
S1  -9.348  3.59804685827  4.34440811
S2  -9.348  3.59804685827  7.43463952
Mo  -10.906  2.6985351464  5.889523815
S1  -10.906  6.29658200467  4.34440811
S2  -10.906  6.29658200467  7.43463952
Mo  -12.464  5.3970702928  5.889523815
S1  -12.464  8.99511715107  4.34440811
S2  -12.464  8.99511715107  7.43463952
Mo  -14.022  8.0956054392  5.889523815
S1  -14.022  11.6936522975  4.34440811
S2  -14.022  11.6936522975  7.43463952
Mo  -15.58  10.7941405856  5.889523815
S1  -15.58  14.3921874439  4.34440811
S2  -15.58  14.3921874439  7.43463952
Mo  -17.138  13.492675732  5.889523815
S1  -17.138  17.0907225903  4.34440811
S2  -17.138  17.0907225903  7.43463952
Mo  -18.696  16.1912108784  5.889523815
S1  -18.696  19.7892577367  4.34440811
S2  -18.696  19.7892577367  7.43463952
Mo  -20.254  18.8897460248  5.889523815
S1  -20.254  22.4877928831  4.34440811
S2  -20.254  22.4877928831  7.43463952
Mo  -21.812  21.5882811712  5.889523815
S1  -21.812  25.1863280295  4.34440811
S2  -21.812  25.1863280295  7.43463952
Mo  -23.37  24.2868163176  5.889523815
S1  -23.37  27.8848631759  4.34440811
S2  -23.37  27.8848631759  7.43463952
Mo  -24.928  26.985351464  5.889523815
S1  -24.928  30.5833983223  4.34440811
S2  -24.928  30.5833983223  7.43463952
Mo  -26.486  29.6838866104  5.889523815
S1  -26.486  33.2819334687  4.34440811
S2  -26.486  33.2819334687  7.43463952
Mo  -28.044  32.3824217568  5.889523815
S1  -28.044  35.9804686151  4.34440811
S2  -28.044  35.9804686151  7.43463952
Mo  -29.602  35.0809569032  5.889523815
S1  -29.602  38.6790037615  4.34440811
S2  -29.602  38.6790037615  7.43463952
Mo  -31.16  37.7794920496  5.889523815
S1  -31.16  41.3775389079  4.34440811
S2  -31.16  41.3775389079  7.43463952
Mo  -32.718  40.478027196  5.889523815
S1  -32.718  44.0760740543  4.34440811
S2  -32.718  44.0760740543  7.43463952
Mo  -34.276  43.1765623424  5.889523815
S1  -34.276  46.7746092007  4.34440811
S2  -34.276  46.7746092007  7.43463952
S1  -4.674  0.89951171187  4.34440811
S2  -4.674  0.89951171187  7.43463952
S1  -6.232  3.59804685827  4.34440811
S2  -6.232  3.59804685827  7.43463952
Mo  -7.79  2.6985351464  5.889523815
S1  -7.79  6.29658200467  4.34440811
S2  -7.79  6.29658200467  7.43463952
Mo  -9.348  5.3970702928  5.889523815
S1  -9.348  8.99511715107  4.34440811
S2  -9.348  8.99511715107  7.43463952
Mo  -10.906  8.0956054392  5.889523815
S1  -10.906  11.6936522975  4.34440811
S2  -10.906  11.6936522975  7.43463952
Mo  -12.464  10.7941405856  5.889523815
S1  -12.464  14.3921874439  4.34440811
S2  -12.464  14.3921874439  7.43463952
Mo  -14.022  13.492675732  5.889523815
S1  -14.022  17.0907225903  4.34440811
S2  -14.022  17.0907225903  7.43463952
Mo  -15.58  16.1912108784  5.889523815
S1  -15.58  19.7892577367  4.34440811
S2  -15.58  19.7892577367  7.43463952
Mo  -17.138  18.8897460248  5.889523815
S1  -17.138  22.4877928831  4.34440811
S2  -17.138  22.4877928831  7.43463952
Mo  -18.696  21.5882811712  5.889523815
S1  -18.696  25.1863280295  4.34440811
S2  -18.696  25.1863280295  7.43463952
Mo  -20.254  24.2868163176  5.889523815
S1  -20.254  27.8848631759  4.34440811
S2  -20.254  27.8848631759  7.43463952
Mo  -21.812  26.985351464  5.889523815
S1  -21.812  30.5833983223  4.34440811
S2  -21.812  30.5833983223  7.43463952
Mo  -23.37  29.6838866104  5.889523815
S1  -23.37  33.2819334687  4.34440811
S2  -23.37  33.2819334687  7.43463952
Mo  -24.928  32.3824217568  5.889523815
S1  -24.928  35.9804686151  4.34440811
S2  -24.928  35.9804686151  7.43463952
Mo  -26.486  35.0809569032  5.889523815
S1  -26.486  38.6790037615  4.34440811
S2  -26.486  38.6790037615  7.43463952
Mo  -28.044  37.7794920496  5.889523815
S1  -28.044  41.3775389079  4.34440811
S2  -28.044  41.3775389079  7.43463952
Mo  -29.602  40.478027196  5.889523815
S1  -29.602  44.0760740543  4.34440811
S2  -29.602  44.0760740543  7.43463952
Mo  -31.16  43.1765623424  5.889523815
S1  -31.16  46.7746092007  4.34440811
S2  -31.16  46.7746092007  7.43463952
Mo  -32.718  45.8750974888  5.889523815
Mo  -34.276  48.5736326352  5.889523815
Mo  -3.116  0.0  5.889523815
S1  -3.116  3.59804685827  4.34440811
S2  -3.116  3.59804685827  7.43463952
Mo  -4.674  2.6985351464  5.889523815
S1  -4.674  6.29658200467  4.34440811
S2  -4.674  6.29658200467  7.43463952
Mo  -6.232  5.3970702928  5.889523815
S1  -6.232  8.99511715107  4.34440811
S2  -6.232  8.99511715107  7.43463952
Mo  -7.79  8.0956054392  5.889523815
S1  -7.79  11.6936522975  4.34440811
S2  -7.79  11.6936522975  7.43463952
Mo  -9.348  10.7941405856  5.889523815
S1  -9.348  14.3921874439  4.34440811
S2  -9.348  14.3921874439  7.43463952
Mo  -10.906  13.492675732  5.889523815
S1  -10.906  17.0907225903  4.34440811
S2  -10.906  17.0907225903  7.43463952
Mo  -12.464  16.1912108784  5.889523815
S1  -12.464  19.7892577367  4.34440811
S2  -12.464  19.7892577367  7.43463952
Mo  -14.022  18.8897460248  5.889523815
S1  -14.022  22.4877928831  4.34440811
S2  -14.022  22.4877928831  7.43463952
Mo  -15.58  21.5882811712  5.889523815
S1  -15.58  25.1863280295  4.34440811
S2  -15.58  25.1863280295  7.43463952
Mo  -17.138  24.2868163176  5.889523815
S1  -17.138  27.8848631759  4.34440811
S2  -17.138  27.8848631759  7.43463952
Mo  -18.696  26.985351464  5.889523815
S1  -18.696  30.5833983223  4.34440811
S2  -18.696  30.5833983223  7.43463952
Mo  -20.254  29.6838866104  5.889523815
S1  -20.254  33.2819334687  4.34440811
S2  -20.254  33.2819334687  7.43463952
Mo  -21.812  32.3824217568  5.889523815
S1  -21.812  35.9804686151  4.34440811
S2  -21.812  35.9804686151  7.43463952
Mo  -23.37  35.0809569032  5.889523815
S1  -23.37  38.6790037615  4.34440811
S2  -23.37  38.6790037615  7.43463952
Mo  -24.928  37.7794920496  5.889523815
S1  -24.928  41.3775389079  4.34440811
S2  -24.928  41.3775389079  7.43463952
Mo  -26.486  40.478027196  5.889523815
S1  -26.486  44.0760740543  4.34440811
S2  -26.486  44.0760740543  7.43463952
Mo  -28.044  43.1765623424  5.889523815
Mo  -29.602  45.8750974888  5.889523815
Mo  -3.116  5.3970702928  5.889523815
S1  -3.116  8.99511715107  4.34440811
S2  -3.116  8.99511715107  7.43463952
Mo  -4.674  8.0956054392  5.889523815
S1  -4.674  11.6936522975  4.34440811
S2  -4.674  11.6936522975  7.43463952
Mo  -6.232  10.7941405856  5.889523815
S1  -6.232  14.3921874439  4.34440811
S2  -6.232  14.3921874439  7.43463952
Mo  -7.79  13.492675732  5.889523815
S1  -7.79  17.0907225903  4.34440811
S2  -7.79  17.0907225903  7.43463952
Mo  -9.348  16.1912108784  5.889523815
S1  -9.348  19.7892577367  4.34440811
S2  -9.348  19.7892577367  7.43463952
Mo  -10.906  18.8897460248  5.889523815
S1  -10.906  22.4877928831  4.34440811
S2  -10.906  22.4877928831  7.43463952
Mo  -12.464  21.5882811712  5.889523815
S1  -12.464  25.1863280295  4.34440811
S2  -12.464  25.1863280295  7.43463952
Mo  -14.022  24.2868163176  5.889523815
S1  -14.022  27.8848631759  4.34440811
S2  -14.022  27.8848631759  7.43463952
Mo  -15.58  26.985351464  5.889523815
S1  -15.58  30.5833983223  4.34440811
S2  -15.58  30.5833983223  7.43463952
Mo  -17.138  29.6838866104  5.889523815
S1  -17.138  33.2819334687  4.34440811
S2  -17.138  33.2819334687  7.43463952
Mo  -18.696  32.3824217568  5.889523815
S1  -18.696  35.9804686151  4.34440811
S2  -18.696  35.9804686151  7.43463952
Mo  -20.254  35.0809569032  5.889523815
S1  -20.254  38.6790037615  4.34440811
S2  -20.254  38.6790037615  7.43463952
Mo  -21.812  37.7794920496  5.889523815
S1  -21.812  41.3775389079  4.34440811
S2  -21.812  41.3775389079  7.43463952
Mo  -23.37  40.478027196  5.889523815
Mo  -24.928  43.1765623424  5.889523815
Mo  -4.674  13.492675732  5.889523815
S1  -4.674  17.0907225903  4.34440811
S2  -4.674  17.0907225903  7.43463952
Mo  -6.232  16.1912108784  5.889523815
S1  -6.232  19.7892577367  4.34440811
S2  -6.232  19.7892577367  7.43463952
Mo  -7.79  18.8897460248  5.889523815
S1  -7.79  22.4877928831  4.34440811
S2  -7.79  22.4877928831  7.43463952
Mo  -9.348  21.5882811712  5.889523815
S1  -9.348  25.1863280295  4.34440811
S2  -9.348  25.1863280295  7.43463952
Mo  -10.906  24.2868163176  5.889523815
S1  -10.906  27.8848631759  4.34440811
S2  -10.906  27.8848631759  7.43463952
Mo  -12.464  26.985351464  5.889523815
S1  -12.464  30.5833983223  4.34440811
S2  -12.464  30.5833983223  7.43463952
Mo  -14.022  29.6838866104  5.889523815
S1  -14.022  33.2819334687  4.34440811
S2  -14.022  33.2819334687  7.43463952
Mo  -15.58  32.3824217568  5.889523815
S1  -15.58  35.9804686151  4.34440811
S2  -15.58  35.9804686151  7.43463952
Mo  -17.138  35.0809569032  5.889523815
S1  -17.138  38.6790037615  4.34440811
S2  -17.138  38.6790037615  7.43463952
Mo  -18.696  37.7794920496  5.889523815
Mo  -20.254  40.478027196  5.889523815
Mo  -4.674  18.8897460248  5.889523815
S1  -4.674  22.4877928831  4.34440811
S2  -4.674  22.4877928831  7.43463952
Mo  -6.232  21.5882811712  5.889523815
S1  -6.232  25.1863280295  4.34440811
S2  -6.232  25.1863280295  7.43463952
Mo  -7.79  24.2868163176  5.889523815
S1  -7.79  27.8848631759  4.34440811
S2  -7.79  27.8848631759  7.43463952
Mo  -9.348  26.985351464  5.889523815
S1  -9.348  30.5833983223  4.34440811
S2  -9.348  30.5833983223  7.43463952
Mo  -10.906  29.6838866104  5.889523815
S1  -10.906  33.2819334687  4.34440811
S2  -10.906  33.2819334687  7.43463952
Mo  -12.464  32.3824217568  5.889523815
S1  -12.464  35.9804686151  4.34440811
S2  -12.464  35.9804686151  7.43463952
Mo  -14.022  35.0809569032  5.889523815
Mo  -15.58  37.7794920496  5.889523815
Mo  -4.674  24.2868163176  5.889523815
S1  -4.674  27.8848631759  4.34440811
S2  -4.674  27.8848631759  7.43463952
Mo  -6.232  26.985351464  5.889523815
S1  -6.232  30.5833983223  4.34440811
S2  -6.232  30.5833983223  7.43463952
Mo  -7.79  29.6838866104  5.889523815
S1  -7.79  33.2819334687  4.34440811
S2  -7.79  33.2819334687  7.43463952
Mo  -9.348  32.3824217568  5.889523815
S1  -9.348  35.9804686151  4.34440811
S2  -9.348  35.9804686151  7.43463952
Mo  -10.906  35.0809569032  5.889523815
Mo  -4.674  29.6838866104  5.889523815
S1  -4.674  33.2819334687  4.34440811
S2  -4.674  33.2819334687  7.43463952
Mo  -6.232  32.3824217568  5.889523815
Mo  -7.79  35.0809569032  5.889523815
S1  -31.000519678  14.399270202  10.24440811
S2  -31.000519678  14.399270202  13.33463952
S1  -32.7916062911  16.9490671902  10.24440811
S2  -32.7916062911  16.9490671902  13.33463952
S1  -26.1057007814  12.1257012222  10.24440811
S2  -26.1057007814  12.1257012222  13.33463952
S1  -27.8967873945  14.6754982103  10.24440811
S2  -27.8967873945  14.6754982103  13.33463952
Mo  -29.3689133795  13.641413879  11.789523815
S1  -29.6878740076  17.2252951985  10.24440811
S2  -29.6878740076  17.2252951985  13.33463952
Mo  -31.1599999926  16.1912108672  11.789523815
S1  -31.4789606208  19.7750921866  10.24440811
S2  -31.4789606208  19.7750921866  13.33463952
Mo  -32.9510866057  18.7410078553  11.789523815
S1  -33.2700472339  22.3248891747  10.24440811
S2  -33.2700472339  22.3248891747  13.33463952
S1  -19.4197952717  7.30233525424  10.24440811
S2  -19.4197952717  7.30233525424  13.33463952
S1  -21.2108818849  9.85213224238  10.24440811
S2  -21.2108818849  9.85213224238  13.33463952
Mo  -22.6830078698  8.81804791105  11.789523815
S1  -23.0019684979  12.4019292305  10.24440811
S2  -23.0019684979  12.4019292305  13.33463952
Mo  -24.4740944829  11.3678448992  11.789523815
S1  -24.7930551111  14.9517262186  10.24440811
S2  -24.7930551111  14.9517262186  13.33463952
Mo  -26.265181096  13.9176418873  11.789523815
S1  -26.5841417242  17.5015232068  10.24440811
S2  -26.5841417242  17.5015232068  13.33463952
Mo  -28.0562677091  16.4674388755  11.789523815
S1  -28.3752283373  20.0513201949  10.24440811
S2  -28.3752283373  20.0513201949  13.33463952
Mo  -29.8473543222  19.0172358636  11.789523815
S1  -30.1663149504  22.601117183  10.24440811
S2  -30.1663149504  22.601117183  13.33463952
Mo  -31.6384409353  21.5670328517  11.789523815
S1  -31.9574015635  25.1509141712  10.24440811
S2  -31.9574015635  25.1509141712  13.33463952
Mo  -33.4295275484  24.1168298398  11.789523815
S1  -33.7484881766  27.7007111593  10.24440811
S2  -33.7484881766  27.7007111593  13.33463952
S1  -14.5249763752  5.0287662744  10.24440811
S2  -14.5249763752  5.0287662744  13.33463952
S1  -16.3160629883  7.57856326254  10.24440811
S2  -16.3160629883  7.57856326254  13.33463952
Mo  -17.7881889732  6.54447893121  11.789523815
S1  -18.1071496014  10.1283602507  10.24440811
S2  -18.1071496014  10.1283602507  13.33463952
Mo  -19.5792755863  9.09427591935  11.789523815
S1  -19.8982362145  12.6781572388  10.24440811
S2  -19.8982362145  12.6781572388  13.33463952
Mo  -21.3703621994  11.6440729075  11.789523815
S1  -21.6893228276  15.2279542269  10.24440811
S2  -21.6893228276  15.2279542269  13.33463952
Mo  -23.1614488125  14.1938698956  11.789523815
S1  -23.4804094407  17.7777512151  10.24440811
S2  -23.4804094407  17.7777512151  13.33463952
Mo  -24.9525354256  16.7436668837  11.789523815
S1  -25.2714960538  20.3275482032  10.24440811
S2  -25.2714960538  20.3275482032  13.33463952
Mo  -26.7436220387  19.2934638719  11.789523815
S1  -27.0625826669  22.8773451913  10.24440811
S2  -27.0625826669  22.8773451913  13.33463952
Mo  -28.5347086518  21.84326086  11.789523815
S1  -28.85366928  25.4271421795  10.24440811
S2  -28.85366928  25.4271421795  13.33463952
Mo  -30.325795265  24.3930578482  11.789523815
S1  -30.6447558931  27.9769391676  10.24440811
S2  -30.6447558931  27.9769391676  13.33463952
Mo  -32.1168818781  26.9428548363  11.789523815
S1  -32.4358425063  30.5267361557  10.24440811
S2  -32.4358425063  30.5267361557  13.33463952
Mo  -33.9079684912  29.4926518244  11.789523815
S1  -34.2269291194  33.0765331439  10.24440811
S2  -34.2269291194  33.0765331439  13.33463952
S1  -9.63015747858  2.75519729457  10.24440811
S2  -9.63015747858  2.75519729457  13.33463952
S1  -11.4212440917  5.3049942827  10.24440811
S2  -11.4212440917  5.3049942827  13.33463952
Mo  -12.8933700766  4.27090995138  11.789523815
S1  -13.2123307048  7.85479127084  10.24440811
S2  -13.2123307048  7.85479127084  13.33463952
Mo  -14.6844566897  6.82070693951  11.789523815
S1  -15.0034173179  10.404588259  10.24440811
S2  -15.0034173179  10.404588259  13.33463952
Mo  -16.4755433028  9.37050392764  11.789523815
S1  -16.794503931  12.9543852471  10.24440811
S2  -16.794503931  12.9543852471  13.33463952
Mo  -18.2666299159  11.9203009158  11.789523815
S1  -18.5855905441  15.5041822352  10.24440811
S2  -18.5855905441  15.5041822352  13.33463952
Mo  -20.0577165291  14.4700979039  11.789523815
S1  -20.3766771572  18.0539792234  10.24440811
S2  -20.3766771572  18.0539792234  13.33463952
Mo  -21.8488031422  17.019894892  11.789523815
S1  -22.1677637703  20.6037762115  10.24440811
S2  -22.1677637703  20.6037762115  13.33463952
Mo  -23.6398897553  19.5696918802  11.789523815
S1  -23.9588503835  23.1535731996  10.24440811
S2  -23.9588503835  23.1535731996  13.33463952
Mo  -25.4309763684  22.1194888683  11.789523815
S1  -25.7499369966  25.7033701878  10.24440811
S2  -25.7499369966  25.7033701878  13.33463952
Mo  -27.2220629815  24.6692858564  11.789523815
S1  -27.5410236097  28.2531671759  10.24440811
S2  -27.5410236097  28.2531671759  13.33463952
Mo  -29.0131495946  27.2190828446  11.789523815
S1  -29.3321102228  30.802964164  10.24440811
S2  -29.3321102228  30.802964164  13.33463952
Mo  -30.8042362077  29.7688798327  11.789523815
S1  -31.1231968359  33.3527611522  10.24440811
S2  -31.1231968359  33.3527611522  13.33463952
Mo  -32.5953228208  32.3186768209  11.789523815
S1  -32.914283449  35.9025581403  10.24440811
S2  -32.914283449  35.9025581403  13.33463952
Mo  -34.3864094339  34.868473809  11.789523815
S1  -34.7053700621  38.4523551284  10.24440811
S2  -34.7053700621  38.4523551284  13.33463952
S1  -4.73533858201  0.48162831473  10.24440811
S2  -4.73533858201  0.48162831473  13.33463952
S1  -6.52642519512  3.03142530287  10.24440811
S2  -6.52642519512  3.03142530287  13.33463952
Mo  -7.99855118004  1.99734097154  11.789523815
S1  -8.31751180823  5.581222291  10.24440811
S2  -8.31751180823  5.581222291  13.33463952
Mo  -9.78963779315  4.54713795967  11.789523815
S1  -10.1085984213  8.13101927913  10.24440811
S2  -10.1085984213  8.13101927913  13.33463952
Mo  -11.5807244063  7.09693494781  11.789523815
S1  -11.8996850345  10.6808162673  10.24440811
S2  -11.8996850345  10.6808162673  13.33463952
Mo  -13.3718110194  9.64673193594  11.789523815
S1  -13.6907716476  13.2306132554  10.24440811
S2  -13.6907716476  13.2306132554  13.33463952
Mo  -15.1628976325  12.1965289241  11.789523815
S1  -15.4818582607  15.7804102435  10.24440811
S2  -15.4818582607  15.7804102435  13.33463952
Mo  -16.9539842456  14.7463259122  11.789523815
S1  -17.2729448738  18.3302072317  10.24440811
S2  -17.2729448738  18.3302072317  13.33463952
Mo  -18.7450708587  17.2961229003  11.789523815
S1  -19.0640314869  20.8800042198  10.24440811
S2  -19.0640314869  20.8800042198  13.33463952
Mo  -20.5361574718  19.8459198885  11.789523815
S1  -20.8551181  23.4298012079  10.24440811
S2  -20.8551181  23.4298012079  13.33463952
Mo  -22.3272440849  22.3957168766  11.789523815
S1  -22.6462047131  25.9795981961  10.24440811
S2  -22.6462047131  25.9795981961  13.33463952
Mo  -24.118330698  24.9455138647  11.789523815
S1  -24.4372913262  28.5293951842  10.24440811
S2  -24.4372913262  28.5293951842  13.33463952
Mo  -25.9094173111  27.4953108529  11.789523815
S1  -26.2283779393  31.0791921723  10.24440811
S2  -26.2283779393  31.0791921723  13.33463952
Mo  -27.7005039243  30.045107841  11.789523815
S1  -28.0194645524  33.6289891605  10.24440811
S2  -28.0194645524  33.6289891605  13.33463952
Mo  -29.4915905374  32.5949048291  11.789523815
S1  -29.8105511655  36.1787861486  10.24440811
S2  -29.8105511655  36.1787861486  13.33463952
Mo  -31.2826771505  35.1447018173  11.789523815
S1  -31.6016377787  38.7285831367  10.24440811
S2  -31.6016377787  38.7285831367  13.33463952
Mo  -33.0737637636  37.6944988054  11.789523815
S1  -33.3927243918  41.2783801249  10.24440811
S2  -33.3927243918  41.2783801249  13.33463952
Mo  -34.8648503767  40.2442957935  11.789523815
Mo  -3.10373228347  -0.2762280083  11.789523815
S1  -3.42269291165  3.30765331116  10.24440811
S2  -3.42269291165  3.30765331116  13.33463952
Mo  -4.89481889658  2.27356897984  11.789523815
S1  -5.21377952476  5.8574502993  10.24440811
S2  -5.21377952476  5.8574502993  13.33463952
Mo  -6.68590550969  4.82336596797  11.789523815
S1  -7.00486613787  8.40724728743  10.24440811
S2  -7.00486613787  8.40724728743  13.33463952
Mo  -8.4769921228  7.3731629561  11.789523815
S1  -8.79595275098  10.9570442756  10.24440811
S2  -8.79595275098  10.9570442756  13.33463952
Mo  -10.2680787359  9.92295994424  11.789523815
S1  -10.5870393641  13.5068412637  10.24440811
S2  -10.5870393641  13.5068412637  13.33463952
Mo  -12.059165349  12.4727569324  11.789523815
S1  -12.3781259772  16.0566382518  10.24440811
S2  -12.3781259772  16.0566382518  13.33463952
Mo  -13.8502519621  15.0225539205  11.789523815
S1  -14.1692125903  18.60643524  10.24440811
S2  -14.1692125903  18.60643524  13.33463952
Mo  -15.6413385752  17.5723509086  11.789523815
S1  -15.9602992034  21.1562322281  10.24440811
S2  -15.9602992034  21.1562322281  13.33463952
Mo  -17.4324251883  20.1221478968  11.789523815
S1  -17.7513858165  23.7060292162  10.24440811
S2  -17.7513858165  23.7060292162  13.33463952
Mo  -19.2235118015  22.6719448849  11.789523815
S1  -19.5424724296  26.2558262044  10.24440811
S2  -19.5424724296  26.2558262044  13.33463952
Mo  -21.0145984146  25.221741873  11.789523815
S1  -21.3335590428  28.8056231925  10.24440811
S2  -21.3335590428  28.8056231925  13.33463952
Mo  -22.8056850277  27.7715388612  11.789523815
S1  -23.1246456559  31.3554201806  10.24440811
S2  -23.1246456559  31.3554201806  13.33463952
Mo  -24.5967716408  30.3213358493  11.789523815
S1  -24.915732269  33.9052171688  10.24440811
S2  -24.915732269  33.9052171688  13.33463952
Mo  -26.3878582539  32.8711328374  11.789523815
S1  -26.7068188821  36.4550141569  10.24440811
S2  -26.7068188821  36.4550141569  13.33463952
Mo  -28.178944867  35.4209298256  11.789523815
S1  -28.4979054952  39.004811145  10.24440811
S2  -28.4979054952  39.004811145  13.33463952
Mo  -29.9700314801  37.9707268137  11.789523815
S1  -30.2889921083  41.5546081332  10.24440811
S2  -30.2889921083  41.5546081332  13.33463952
Mo  -31.7611180932  40.5205238018  11.789523815
S1  -32.0800787214  44.1044051213  10.24440811
S2  -32.0800787214  44.1044051213  13.33463952
Mo  -33.5522047063  43.07032079  11.789523815
S1  -33.8711653345  46.6542021094  10.24440811
S2  -33.8711653345  46.6542021094  13.33463952
Mo  -3.58217322622  5.09959397627  11.789523815
S1  -3.9011338544  8.68347529573  10.24440811
S2  -3.9011338544  8.68347529573  13.33463952
Mo  -5.37325983933  7.6493909644  11.789523815
S1  -5.69222046751  11.2332722839  10.24440811
S2  -5.69222046751  11.2332722839  13.33463952
Mo  -7.16434645244  10.1991879525  11.789523815
S1  -7.48330708062  13.783069272  10.24440811
S2  -7.48330708062  13.783069272  13.33463952
Mo  -8.95543306555  12.7489849407  11.789523815
S1  -9.27439369373  16.3328662601  10.24440811
S2  -9.27439369373  16.3328662601  13.33463952
Mo  -10.7465196787  15.2987819288  11.789523815
S1  -11.0654803068  18.8826632483  10.24440811
S2  -11.0654803068  18.8826632483  13.33463952
Mo  -12.5376062918  17.8485789169  11.789523815
S1  -12.8565669199  21.4324602364  10.24440811
S2  -12.8565669199  21.4324602364  13.33463952
Mo  -14.3286929049  20.3983759051  11.789523815
S1  -14.6476535331  23.9822572245  10.24440811
S2  -14.6476535331  23.9822572245  13.33463952
Mo  -16.119779518  22.9481728932  11.789523815
S1  -16.4387401462  26.5320542127  10.24440811
S2  -16.4387401462  26.5320542127  13.33463952
Mo  -17.9108661311  25.4979698813  11.789523815
S1  -18.2298267593  29.0818512008  10.24440811
S2  -18.2298267593  29.0818512008  13.33463952
Mo  -19.7019527442  28.0477668695  11.789523815
S1  -20.0209133724  31.6316481889  10.24440811
S2  -20.0209133724  31.6316481889  13.33463952
Mo  -21.4930393573  30.5975638576  11.789523815
S1  -21.8119999855  34.1814451771  10.24440811
S2  -21.8119999855  34.1814451771  13.33463952
Mo  -23.2841259704  33.1473608457  11.789523815
S1  -23.6030865986  36.7312421652  10.24440811
S2  -23.6030865986  36.7312421652  13.33463952
Mo  -25.0752125835  35.6971578339  11.789523815
S1  -25.3941732117  39.2810391533  10.24440811
S2  -25.3941732117  39.2810391533  13.33463952
Mo  -26.8662991967  38.246954822  11.789523815
S1  -27.1852598248  41.8308361415  10.24440811
S2  -27.1852598248  41.8308361415  13.33463952
Mo  -28.6573858098  40.7967518101  11.789523815
S1  -28.9763464379  44.3806331296  10.24440811
S2  -28.9763464379  44.3806331296  13.33463952
Mo  -30.4484724229  43.3465487983  11.789523815
S1  -30.767433051  46.9304301177  10.24440811
S2  -30.767433051  46.9304301177  13.33463952
Mo  -32.239559036  45.8963457864  11.789523815
Mo  -34.0306456491  48.4461427745  11.789523815
Mo  -4.06061416897  10.4754159608  11.789523815
S1  -4.37957479716  14.0592972803  10.24440811
S2  -4.37957479716  14.0592972803  13.33463952
Mo  -5.85170078208  13.025212949  11.789523815
S1  -6.17066141027  16.6090942684  10.24440811
S2  -6.17066141027  16.6090942684  13.33463952
Mo  -7.64278739519  15.5750099371  11.789523815
S1  -7.96174802338  19.1588912566  10.24440811
S2  -7.96174802338  19.1588912566  13.33463952
Mo  -9.4338740083  18.1248069252  11.789523815
S1  -9.75283463648  21.7086882447  10.24440811
S2  -9.75283463648  21.7086882447  13.33463952
Mo  -11.2249606214  20.6746039134  11.789523815
S1  -11.5439212496  24.2584852328  10.24440811
S2  -11.5439212496  24.2584852328  13.33463952
Mo  -13.0160472345  23.2244009015  11.789523815
S1  -13.3350078627  26.808282221  10.24440811
S2  -13.3350078627  26.808282221  13.33463952
Mo  -14.8071338476  25.7741978896  11.789523815
S1  -15.1260944758  29.3580792091  10.24440811
S2  -15.1260944758  29.3580792091  13.33463952
Mo  -16.5982204607  28.3239948778  11.789523815
S1  -16.9171810889  31.9078761972  10.24440811
S2  -16.9171810889  31.9078761972  13.33463952
Mo  -18.3893070738  30.8737918659  11.789523815
S1  -18.708267702  34.4576731854  10.24440811
S2  -18.708267702  34.4576731854  13.33463952
Mo  -20.180393687  33.423588854  11.789523815
S1  -20.4993543151  37.0074701735  10.24440811
S2  -20.4993543151  37.0074701735  13.33463952
Mo  -21.9714803001  35.9733858422  11.789523815
S1  -22.2904409282  39.5572671616  10.24440811
S2  -22.2904409282  39.5572671616  13.33463952
Mo  -23.7625669132  38.5231828303  11.789523815
S1  -24.0815275414  42.1070641498  10.24440811
S2  -24.0815275414  42.1070641498  13.33463952
Mo  -25.5536535263  41.0729798184  11.789523815
S1  -25.8726141545  44.6568611379  10.24440811
S2  -25.8726141545  44.6568611379  13.33463952