&CONTROL
  calculation  = "scf"
  prefix       = "lego"
  pseudo_dir   = "."
  outdir       = "."
  verbosity="high"
/
&SYSTEM
  ibrav     = 0
  celldm(1) = 4.648726
  nat       = 28
  ntyp      = 1
  vdw_corr = "grimme-d2"
  ecutwfc   = 60
  ecutrho = 600
/
&ELECTRONS
  conv_thr    = 1.D-8
  mixing_beta = 0.3D0
/
&IONS
 ion_dynamics="bfgs"
/

CELL_PARAMETERS {alat}
-0.5	2.598076	0.0
-2.5	0.866025	0.0
0.0	0.0	10.0

ATOMIC_SPECIES
xxxxxxx
xxxxxxx
xxxxxx

ATOMIC_POSITIONS {Angstrom}
C  -6.15  0.710141  0.0
C  -7.38  2.840563  0.0
C  -8.61  4.970986  0.0
C  -3.69  0.710141  0.0
C  -4.92  0.0  0.0
C  -4.92  2.840563  0.0
C  -6.15  2.130422  0.0
C  -6.15  4.970986  0.0
C  -7.38  4.260845  0.0
C  -8.61  6.391267  0.0
C  -2.46  0.0  0.0
C  -3.69  2.130422  0.0
C  -3.69  4.970986  0.0
C  -4.92  4.260845  0.0
C  -3.69  -0.710141  3.3
C  -5.622857  0.81159  3.3
C  -7.555714  2.33332  3.3
C  -2.284286  -0.913038  3.3
C  -3.338571  1.724628  3.3
C  -4.217143  0.608692  3.3
C  -5.271429  3.246358  3.3
C  -6.15  2.130422  3.3
C  -7.204286  4.768088  3.3
C  -8.082857  3.652153  3.3
C  -2.987143  4.159396  3.3
C  -3.865714  3.043461  3.3
C  -5.798571  4.565191  3.3
C  -7.731429  6.086921  3.3

K_POINTS {GAMMA}