&CONTROL
  calculation  = "scf"
  prefix       = "lego"
  pseudo_dir   = "."
  outdir       = "."
  verbosity="high"
/
&SYSTEM
  ibrav     = 0
  celldm(1) = 4.648726
  nat       = 508
  ntyp      = 1
  vdw_corr = "grimme-d2"
  ecutwfc   = 60
  ecutrho = 600
/
&ELECTRONS
  conv_thr    = 1.D-8
  mixing_beta = 0.3D0
/
&IONS
 ion_dynamics="bfgs"
/

CELL_PARAMETERS {alat}
-0.5	11.25833	0.0
-10.0	5.196152	0.0
0.0	0.0	10.0

ATOMIC_SPECIES
xxxxxxx
xxxxxxx
xxxxxx

ATOMIC_POSITIONS {Angstrom}
C  -24.6  11.362253  0.0
C  -25.83  13.492676  0.0
C  -20.91  9.231831  0.0
C  -22.14  11.362253  0.0
C  -23.37  10.652112  0.0
C  -23.37  13.492676  0.0
C  -24.6  12.782535  0.0
C  -24.6  15.623098  0.0
C  -25.83  14.912957  0.0
C  -25.83  17.753521  0.0
C  -17.22  7.101408  0.0
C  -18.45  9.231831  0.0
C  -19.68  8.52169  0.0
C  -19.68  11.362253  0.0
C  -20.91  10.652112  0.0
C  -20.91  13.492676  0.0
C  -22.14  12.782535  0.0
C  -22.14  15.623098  0.0
C  -23.37  14.912957  0.0
C  -23.37  17.753521  0.0
C  -24.6  17.04338  0.0
C  -24.6  19.883943  0.0
C  -25.83  19.173802  0.0
C  -25.83  22.014366  0.0
C  -27.06  21.304225  0.0
C  -27.06  24.144788  0.0
C  -13.53  4.970986  0.0
C  -14.76  7.101408  0.0
C  -15.99  6.391267  0.0
C  -15.99  9.231831  0.0
C  -17.22  8.52169  0.0
C  -17.22  11.362253  0.0
C  -18.45  10.652112  0.0
C  -18.45  13.492676  0.0
C  -19.68  12.782535  0.0
C  -19.68  15.623098  0.0
C  -20.91  14.912957  0.0
C  -20.91  17.753521  0.0
C  -22.14  17.04338  0.0
C  -22.14  19.883943  0.0
C  -23.37  19.173802  0.0
C  -23.37  22.014366  0.0
C  -24.6  21.304225  0.0
C  -24.6  24.144788  0.0
C  -25.83  23.434647  0.0
C  -25.83  26.275211  0.0
C  -27.06  25.56507  0.0
C  -27.06  28.405633  0.0
C  -9.84  2.840563  0.0
C  -11.07  4.970986  0.0
C  -12.3  4.260845  0.0
C  -12.3  7.101408  0.0
C  -13.53  6.391267  0.0
C  -13.53  9.231831  0.0
C  -14.76  8.52169  0.0
C  -14.76  11.362253  0.0
C  -15.99  10.652112  0.0
C  -15.99  13.492676  0.0
C  -17.22  12.782535  0.0
C  -17.22  15.623098  0.0
C  -18.45  14.912957  0.0
C  -18.45  17.753521  0.0
C  -19.68  17.04338  0.0
C  -19.68  19.883943  0.0
C  -20.91  19.173802  0.0
C  -20.91  22.014366  0.0
C  -22.14  21.304225  0.0
C  -22.14  24.144788  0.0
C  -23.37  23.434647  0.0
C  -23.37  26.275211  0.0
C  -24.6  25.56507  0.0
C  -24.6  28.405633  0.0
C  -25.83  27.695492  0.0
C  -25.83  30.536056  0.0
C  -27.06  29.825915  0.0
C  -27.06  32.666478  0.0
C  -7.38  2.840563  0.0
C  -8.61  2.130422  0.0
C  -8.61  4.970986  0.0
C  -9.84  4.260845  0.0
C  -9.84  7.101408  0.0
C  -11.07  6.391267  0.0
C  -11.07  9.231831  0.0
C  -12.3  8.52169  0.0
C  -12.3  11.362253  0.0
C  -13.53  10.652112  0.0
C  -13.53  13.492676  0.0
C  -14.76  12.782535  0.0
C  -14.76  15.623098  0.0
C  -15.99  14.912957  0.0
C  -15.99  17.753521  0.0
C  -17.22  17.04338  0.0
C  -17.22  19.883943  0.0
C  -18.45  19.173802  0.0
C  -18.45  22.014366  0.0
C  -19.68  21.304225  0.0
C  -19.68  24.144788  0.0
C  -20.91  23.434647  0.0
C  -20.91  26.275211  0.0
C  -22.14  25.56507  0.0
C  -22.14  28.405633  0.0
C  -23.37  27.695492  0.0
C  -23.37  30.536056  0.0
C  -24.6  29.825915  0.0
C  -24.6  32.666478  0.0
C  -25.83  31.956337  0.0
C  -25.83  34.796901  0.0
C  -27.06  34.08676  0.0
C  -27.06  36.927323  0.0
C  -3.69  0.710141  0.0
C  -4.92  2.840563  0.0
C  -6.15  2.130422  0.0
C  -6.15  4.970986  0.0
C  -7.38  4.260845  0.0
C  -7.38  7.101408  0.0
C  -8.61  6.391267  0.0
C  -8.61  9.231831  0.0
C  -9.84  8.52169  0.0
C  -9.84  11.362253  0.0
C  -11.07  10.652112  0.0
C  -11.07  13.492676  0.0
C  -12.3  12.782535  0.0
C  -12.3  15.623098  0.0
C  -13.53  14.912957  0.0
C  -13.53  17.753521  0.0
C  -14.76  17.04338  0.0
C  -14.76  19.883943  0.0
C  -15.99  19.173802  0.0
C  -15.99  22.014366  0.0
C  -17.22  21.304225  0.0
C  -17.22  24.144788  0.0
C  -18.45  23.434647  0.0
C  -18.45  26.275211  0.0
C  -19.68  25.56507  0.0
C  -19.68  28.405633  0.0
C  -20.91  27.695492  0.0
C  -20.91  30.536056  0.0
C  -22.14  29.825915  0.0
C  -22.14  32.666478  0.0
C  -23.37  31.956337  0.0
C  -23.37  34.796901  0.0
C  -24.6  34.08676  0.0
C  -24.6  36.927323  0.0
C  -25.83  36.217182  0.0
C  -27.06  38.347605  0.0
C  -2.46  0.0  0.0
C  -2.46  2.840563  0.0
C  -3.69  2.130422  0.0
C  -3.69  4.970986  0.0
C  -4.92  4.260845  0.0
C  -4.92  7.101408  0.0
C  -6.15  6.391267  0.0
C  -6.15  9.231831  0.0
C  -7.38  8.52169  0.0
C  -7.38  11.362253  0.0
C  -8.61  10.652112  0.0
C  -8.61  13.492676  0.0
C  -9.84  12.782535  0.0
C  -9.84  15.623098  0.0
C  -11.07  14.912957  0.0
C  -11.07  17.753521  0.0
C  -12.3  17.04338  0.0
C  -12.3  19.883943  0.0
C  -13.53  19.173802  0.0
C  -13.53  22.014366  0.0
C  -14.76  21.304225  0.0
C  -14.76  24.144788  0.0
C  -15.99  23.434647  0.0
C  -15.99  26.275211  0.0
C  -17.22  25.56507  0.0
C  -17.22  28.405633  0.0
C  -18.45  27.695492  0.0
C  -18.45  30.536056  0.0
C  -19.68  29.825915  0.0
C  -19.68  32.666478  0.0
C  -20.91  31.956337  0.0
C  -20.91  34.796901  0.0
C  -22.14  34.08676  0.0
C  -23.37  36.217182  0.0
C  -2.46  4.260845  0.0
C  -2.46  7.101408  0.0
C  -3.69  6.391267  0.0
C  -3.69  9.231831  0.0
C  -4.92  8.52169  0.0
C  -4.92  11.362253  0.0
C  -6.15  10.652112  0.0
C  -6.15  13.492676  0.0
C  -7.38  12.782535  0.0
C  -7.38  15.623098  0.0
C  -8.61  14.912957  0.0
C  -8.61  17.753521  0.0
C  -9.84  17.04338  0.0
C  -9.84  19.883943  0.0
C  -11.07  19.173802  0.0
C  -11.07  22.014366  0.0
C  -12.3  21.304225  0.0
C  -12.3  24.144788  0.0
C  -13.53  23.434647  0.0
C  -13.53  26.275211  0.0
C  -14.76  25.56507  0.0
C  -14.76  28.405633  0.0
C  -15.99  27.695492  0.0
C  -15.99  30.536056  0.0
C  -17.22  29.825915  0.0
C  -17.22  32.666478  0.0
C  -18.45  31.956337  0.0
C  -19.68  34.08676  0.0
C  -3.69  10.652112  0.0
C  -3.69  13.492676  0.0
C  -4.92  12.782535  0.0
C  -4.92  15.623098  0.0
C  -6.15  14.912957  0.0
C  -6.15  17.753521  0.0
C  -7.38  17.04338  0.0
C  -7.38  19.883943  0.0
C  -8.61  19.173802  0.0
C  -8.61  22.014366  0.0
C  -9.84  21.304225  0.0
C  -9.84  24.144788  0.0
C  -11.07  23.434647  0.0
C  -11.07  26.275211  0.0
C  -12.3  25.56507  0.0
C  -12.3  28.405633  0.0
C  -13.53  27.695492  0.0
C  -13.53  30.536056  0.0
C  -14.76  29.825915  0.0
C  -15.99  31.956337  0.0
C  -3.69  14.912957  0.0
C  -3.69  17.753521  0.0
C  -4.92  17.04338  0.0
C  -4.92  19.883943  0.0
C  -6.15  19.173802  0.0
C  -6.15  22.014366  0.0
C  -7.38  21.304225  0.0
C  -7.38  24.144788  0.0
C  -8.61  23.434647  0.0
C  -8.61  26.275211  0.0
C  -9.84  25.56507  0.0
C  -9.84  28.405633  0.0
C  -11.07  27.695492  0.0
C  -12.3  29.825915  0.0
C  -3.69  19.173802  0.0
C  -3.69  22.014366  0.0
C  -4.92  21.304225  0.0
C  -4.92  24.144788  0.0
C  -6.15  23.434647  0.0
C  -6.15  26.275211  0.0
C  -7.38  25.56507  0.0
C  -7.38  28.405633  0.0
C  -8.61  27.695492  0.0
C  -3.69  23.434647  0.0
C  -3.69  26.275211  0.0
C  -4.92  25.56507  0.0
C  -6.15  27.695492  0.0
C  -24.474097  11.36784  3.3
C  -25.888113  13.380837  3.3
C  -20.609766  9.572918  3.3
C  -22.023782  11.585915  3.3
C  -23.185987  10.769532  3.3
C  -23.437798  13.598912  3.3
C  -24.600003  12.78253  3.3
C  -24.851814  15.61191  3.3
C  -26.014019  14.795527  3.3
C  -26.26583  17.624907  3.3
C  -15.331419  5.764998  3.3
C  -16.745435  7.777996  3.3
C  -17.907639  6.961613  3.3
C  -18.159451  9.790993  3.3
C  -19.321655  8.97461  3.3
C  -19.573467  11.80399  3.3
C  -20.735672  10.987608  3.3
C  -20.987483  13.816988  3.3
C  -22.149688  13.000605  3.3
C  -22.401499  15.829985  3.3
C  -23.563704  15.013602  3.3
C  -23.815516  17.842982  3.3
C  -24.97772  17.0266  3.3
C  -25.229532  19.85598  3.3
C  -26.391736  19.039597  3.3
C  -26.643548  21.868977  3.3
C  -11.467087  3.970076  3.3
C  -12.881104  5.983074  3.3
C  -14.043308  5.166691  3.3
C  -14.29512  7.996071  3.3
C  -15.457324  7.179688  3.3
C  -15.709136  10.009068  3.3
C  -16.871341  9.192686  3.3
C  -17.123152  12.022066  3.3
C  -18.285357  11.205683  3.3
C  -18.537168  14.035063  3.3
C  -19.699373  13.21868  3.3
C  -19.951184  16.04806  3.3
C  -21.113389  15.231678  3.3
C  -21.365201  18.061057  3.3
C  -22.527405  17.244675  3.3
C  -22.779217  20.074055  3.3
C  -23.941421  19.257672  3.3
C  -24.193233  22.087052  3.3
C  -25.355438  21.27067  3.3
C  -25.607249  24.100049  3.3
C  -26.769454  23.283667  3.3
C  -27.021265  26.113047  3.3
C  -7.602756  2.175154  3.3
C  -9.016773  4.188151  3.3
C  -10.178977  3.371769  3.3
C  -10.430789  6.201149  3.3
C  -11.592993  5.384766  3.3
C  -11.844805  8.214146  3.3
C  -13.007009  7.397764  3.3
C  -13.258821  10.227143  3.3
C  -14.421026  9.410761  3.3
C  -14.672837  12.240141  3.3
C  -15.835042  11.423758  3.3
C  -16.086853  14.253138  3.3
C  -17.249058  13.436755  3.3
C  -17.50087  16.266135  3.3
C  -18.663074  15.449753  3.3
C  -18.914886  18.279133  3.3
C  -20.07709  17.46275  3.3
C  -20.328902  20.29213  3.3
C  -21.491106  19.475747  3.3
C  -21.742918  22.305127  3.3
C  -22.905123  21.488745  3.3
C  -23.156934  24.318125  3.3
C  -24.319139  23.501742  3.3
C  -24.57095  26.331122  3.3
C  -25.733155  25.514739  3.3
C  -25.984967  28.344119  3.3
C  -27.147171  27.527737  3.3
C  -27.398983  30.357117  3.3
C  -3.738425  0.380232  3.3
C  -5.152441  2.393229  3.3
C  -6.314646  1.576847  3.3
C  -6.566458  4.406227  3.3
C  -7.728662  3.589844  3.3
C  -7.980474  6.419224  3.3
C  -9.142678  5.602841  3.3
C  -9.39449  8.432221  3.3
C  -10.556695  7.615839  3.3
C  -10.808506  10.445219  3.3
C  -11.970711  9.628836  3.3
C  -12.222522  12.458216  3.3
C  -13.384727  11.641833  3.3
C  -13.636538  14.471213  3.3
C  -14.798743  13.654831  3.3
C  -15.050555  16.484211  3.3
C  -16.212759  15.667828  3.3
C  -16.464571  18.497208  3.3
C  -17.626775  17.680825  3.3
C  -17.878587  20.510205  3.3
C  -19.040792  19.693823  3.3
C  -19.292603  22.523203  3.3
C  -20.454808  21.70682  3.3
C  -20.706619  24.5362  3.3
C  -21.868824  23.719817  3.3
C  -22.120635  26.549197  3.3
C  -23.28284  25.732815  3.3
C  -23.534652  28.562195  3.3
C  -24.696856  27.745812  3.3
C  -24.948668  30.575192  3.3
C  -26.110872  29.758809  3.3
C  -26.362684  32.588189  3.3
C  -27.524889  31.771807  3.3
C  -2.450315  -0.218075  3.3
C  -2.702127  2.611305  3.3
C  -3.864331  1.794922  3.3
C  -4.116143  4.624302  3.3
C  -5.278347  3.807919  3.3
C  -5.530159  6.637299  3.3
C  -6.692363  5.820917  3.3
C  -6.944175  8.650297  3.3
C  -8.10638  7.833914  3.3
C  -8.358191  10.663294  3.3
C  -9.520396  9.846911  3.3
C  -9.772207  12.676291  3.3
C  -10.934412  11.859909  3.3
C  -11.186224  14.689289  3.3
C  -12.348428  13.872906  3.3
C  -12.60024  16.702286  3.3
C  -13.762444  15.885903  3.3
C  -14.014256  18.715283  3.3
C  -15.17646  17.898901  3.3
C  -15.428272  20.728281  3.3
C  -16.590477  19.911898  3.3
C  -16.842288  22.741278  3.3
C  -18.004493  21.924895  3.3
C  -18.256304  24.754275  3.3
C  -19.418509  23.937893  3.3
C  -19.670321  26.767273  3.3
C  -20.832525  25.95089  3.3
C  -21.084337  28.78027  3.3
C  -22.246541  27.963887  3.3
C  -22.498353  30.793267  3.3
C  -23.660557  29.976885  3.3
C  -23.912369  32.806265  3.3
C  -25.074574  31.989882  3.3
C  -25.326385  34.819262  3.3
C  -26.48859  34.002879  3.3
C  -26.740401  36.832259  3.3
C  -2.828032  4.025995  3.3
C  -3.079844  6.855375  3.3
C  -4.242049  6.038992  3.3
C  -4.49386  8.868372  3.3
C  -5.656065  8.051989  3.3
C  -5.907876  10.881369  3.3
C  -7.070081  10.064987  3.3
C  -7.321892  12.894367  3.3
C  -8.484097  12.077984  3.3
C  -8.735909  14.907364  3.3
C  -9.898113  14.090981  3.3
C  -10.149925  16.920361  3.3
C  -11.312129  16.103979  3.3
C  -11.563941  18.933359  3.3
C  -12.726146  18.116976  3.3
C  -12.977957  20.946356  3.3
C  -14.140162  20.129973  3.3
C  -14.391973  22.959353  3.3
C  -15.554178  22.142971  3.3
C  -15.805989  24.972351  3.3
C  -16.968194  24.155968  3.3
C  -17.220006  26.985348  3.3
C  -18.38221  26.168965  3.3
C  -18.634022  28.998345  3.3
C  -19.796226  28.181963  3.3
C  -20.048038  31.011342  3.3
C  -21.210243  30.19496  3.3
C  -21.462054  33.02434  3.3
C  -22.624259  32.207957  3.3
C  -22.87607  35.037337  3.3
C  -24.038275  34.220955  3.3
C  -24.290087  37.050334  3.3
C  -25.452291  36.233952  3.3
C  -26.866307  38.246949  3.3
C  -3.20575  8.270065  3.3
C  -3.457561  11.099444  3.3
C  -4.619766  10.283062  3.3
C  -4.871578  13.112442  3.3
C  -6.033782  12.296059  3.3
C  -6.285594  15.125439  3.3
C  -7.447798  14.309057  3.3
C  -7.69961  17.138436  3.3
C  -8.861814  16.322054  3.3
C  -9.113626  19.151434  3.3
C  -10.275831  18.335051  3.3
C  -10.527642  21.164431  3.3
C  -11.689847  20.348049  3.3
C  -11.941658  23.177428  3.3
C  -13.103863  22.361046  3.3
C  -13.355675  25.190426  3.3
C  -14.517879  24.374043  3.3
C  -14.769691  27.203423  3.3
C  -15.931895  26.38704  3.3
C  -16.183707  29.21642  3.3
C  -17.345911  28.400038  3.3
C  -17.597723  31.229418  3.3
C  -18.759928  30.413035  3.3
C  -19.011739  33.242415  3.3
C  -20.173944  32.426032  3.3
C  -20.425755  35.255412  3.3
C  -21.58796  34.43903  3.3
C  -23.001976  36.452027  3.3
C  -3.583467  12.514134  3.3
C  -3.835279  15.343514  3.3
C  -4.997483  14.527132  3.3
C  -5.249295  17.356512  3.3
C  -6.4115  16.540129  3.3
C  -6.663311  19.369509  3.3
C  -7.825516  18.553126  3.3
C  -8.077327  21.382506  3.3
C  -9.239532  20.566124  3.3
C  -9.491343  23.395504  3.3
C  -10.653548  22.579121  3.3
C  -10.90536  25.408501  3.3
C  -12.067564  24.592118  3.3
C  -12.319376  27.421498  3.3
C  -13.48158  26.605116  3.3
C  -13.733392  29.434496  3.3
C  -14.895597  28.618113  3.3
C  -15.147408  31.447493  3.3
C  -16.309613  30.63111  3.3
C  -17.723629  32.644108  3.3
C  -3.961185  16.758204  3.3
C  -4.212996  19.587584  3.3
C  -5.375201  18.771202  3.3
C  -5.627012  21.600582  3.3
C  -6.789217  20.784199  3.3
C  -7.041029  23.613579  3.3
C  -8.203233  22.797196  3.3
C  -8.455045  25.626576  3.3
C  -9.617249  24.810194  3.3
C  -9.869061  27.639574  3.3
C  -11.031265  26.823191  3.3
C  -11.283077  29.652571  3.3
C  -12.445282  28.836188  3.3
C  -13.859298  30.849186  3.3
C  -3.176697  21.818657  3.3
C  -4.338902  21.002274  3.3
C  -4.590714  23.831654  3.3
C  -5.752918  23.015272  3.3
C  -6.00473  25.844652  3.3
C  -7.166934  25.028269  3.3
C  -7.418746  27.857649  3.3
C  -8.580951  27.041266  3.3
C  -9.994967  29.054264  3.3
C  -3.302603  23.233347  3.3
C  -3.554415  26.062727  3.3
C  -4.716619  25.246344  3.3
C  -6.130636  27.259342  3.3

K_POINTS {GAMMA}