&CONTROL
  calculation  = "scf"
  prefix       = "lego"
  pseudo_dir   = "."
  outdir       = "."
  verbosity="high"
/
&SYSTEM
  ibrav     = 0
  celldm(1) = 4.648726
  nat       = 508
  ntyp      = 1
  vdw_corr = "grimme-d2"
  ecutwfc   = 60
  ecutrho = 600
/
&ELECTRONS
  conv_thr    = 1.D-8
  mixing_beta = 0.3D0
/
&IONS
 ion_dynamics="bfgs"
/

CELL_PARAMETERS {alat}
-0.5	11.25833	0.0
-10.0	5.196152	0.0
0.0	0.0	10.0

ATOMIC_SPECIES
xxxxxxx
xxxxxxx
xxxxxx

ATOMIC_POSITIONS {Angstrom}
C  -24.6  11.362253  0.0
C  -25.83  13.492676  0.0
C  -20.91  9.231831  0.0
C  -22.14  11.362253  0.0
C  -23.37  10.652112  0.0
C  -23.37  13.492676  0.0
C  -24.6  12.782535  0.0
C  -24.6  15.623098  0.0
C  -25.83  14.912957  0.0
C  -25.83  17.753521  0.0
C  -17.22  7.101408  0.0
C  -18.45  9.231831  0.0
C  -19.68  8.52169  0.0
C  -19.68  11.362253  0.0
C  -20.91  10.652112  0.0
C  -20.91  13.492676  0.0
C  -22.14  12.782535  0.0
C  -22.14  15.623098  0.0
C  -23.37  14.912957  0.0
C  -23.37  17.753521  0.0
C  -24.6  17.04338  0.0
C  -24.6  19.883943  0.0
C  -25.83  19.173802  0.0
C  -25.83  22.014366  0.0
C  -27.06  21.304225  0.0
C  -27.06  24.144788  0.0
C  -13.53  4.970986  0.0
C  -14.76  7.101408  0.0
C  -15.99  6.391267  0.0
C  -15.99  9.231831  0.0
C  -17.22  8.52169  0.0
C  -17.22  11.362253  0.0
C  -18.45  10.652112  0.0
C  -18.45  13.492676  0.0
C  -19.68  12.782535  0.0
C  -19.68  15.623098  0.0
C  -20.91  14.912957  0.0
C  -20.91  17.753521  0.0
C  -22.14  17.04338  0.0
C  -22.14  19.883943  0.0
C  -23.37  19.173802  0.0
C  -23.37  22.014366  0.0
C  -24.6  21.304225  0.0
C  -24.6  24.144788  0.0
C  -25.83  23.434647  0.0
C  -25.83  26.275211  0.0
C  -27.06  25.56507  0.0
C  -27.06  28.405633  0.0
C  -9.84  2.840563  0.0
C  -11.07  4.970986  0.0
C  -12.3  4.260845  0.0
C  -12.3  7.101408  0.0
C  -13.53  6.391267  0.0
C  -13.53  9.231831  0.0
C  -14.76  8.52169  0.0
C  -14.76  11.362253  0.0
C  -15.99  10.652112  0.0
C  -15.99  13.492676  0.0
C  -17.22  12.782535  0.0
C  -17.22  15.623098  0.0
C  -18.45  14.912957  0.0
C  -18.45  17.753521  0.0
C  -19.68  17.04338  0.0
C  -19.68  19.883943  0.0
C  -20.91  19.173802  0.0
C  -20.91  22.014366  0.0
C  -22.14  21.304225  0.0
C  -22.14  24.144788  0.0
C  -23.37  23.434647  0.0
C  -23.37  26.275211  0.0
C  -24.6  25.56507  0.0
C  -24.6  28.405633  0.0
C  -25.83  27.695492  0.0
C  -25.83  30.536056  0.0
C  -27.06  29.825915  0.0
C  -27.06  32.666478  0.0
C  -7.38  2.840563  0.0
C  -8.61  2.130422  0.0
C  -8.61  4.970986  0.0
C  -9.84  4.260845  0.0
C  -9.84  7.101408  0.0
C  -11.07  6.391267  0.0
C  -11.07  9.231831  0.0
C  -12.3  8.52169  0.0
C  -12.3  11.362253  0.0
C  -13.53  10.652112  0.0
C  -13.53  13.492676  0.0
C  -14.76  12.782535  0.0
C  -14.76  15.623098  0.0
C  -15.99  14.912957  0.0
C  -15.99  17.753521  0.0
C  -17.22  17.04338  0.0
C  -17.22  19.883943  0.0
C  -18.45  19.173802  0.0
C  -18.45  22.014366  0.0
C  -19.68  21.304225  0.0
C  -19.68  24.144788  0.0
C  -20.91  23.434647  0.0
C  -20.91  26.275211  0.0
C  -22.14  25.56507  0.0
C  -22.14  28.405633  0.0
C  -23.37  27.695492  0.0
C  -23.37  30.536056  0.0
C  -24.6  29.825915  0.0
C  -24.6  32.666478  0.0
C  -25.83  31.956337  0.0
C  -25.83  34.796901  0.0
C  -27.06  34.08676  0.0
C  -27.06  36.927323  0.0
C  -3.69  0.710141  0.0
C  -4.92  2.840563  0.0
C  -6.15  2.130422  0.0
C  -6.15  4.970986  0.0
C  -7.38  4.260845  0.0
C  -7.38  7.101408  0.0
C  -8.61  6.391267  0.0
C  -8.61  9.231831  0.0
C  -9.84  8.52169  0.0
C  -9.84  11.362253  0.0
C  -11.07  10.652112  0.0
C  -11.07  13.492676  0.0
C  -12.3  12.782535  0.0
C  -12.3  15.623098  0.0
C  -13.53  14.912957  0.0
C  -13.53  17.753521  0.0
C  -14.76  17.04338  0.0
C  -14.76  19.883943  0.0
C  -15.99  19.173802  0.0
C  -15.99  22.014366  0.0
C  -17.22  21.304225  0.0
C  -17.22  24.144788  0.0
C  -18.45  23.434647  0.0
C  -18.45  26.275211  0.0
C  -19.68  25.56507  0.0
C  -19.68  28.405633  0.0
C  -20.91  27.695492  0.0
C  -20.91  30.536056  0.0
C  -22.14  29.825915  0.0
C  -22.14  32.666478  0.0
C  -23.37  31.956337  0.0
C  -23.37  34.796901  0.0
C  -24.6  34.08676  0.0
C  -24.6  36.927323  0.0
C  -25.83  36.217182  0.0
C  -27.06  38.347605  0.0
C  -2.46  0.0  0.0
C  -2.46  2.840563  0.0
C  -3.69  2.130422  0.0
C  -3.69  4.970986  0.0
C  -4.92  4.260845  0.0
C  -4.92  7.101408  0.0
C  -6.15  6.391267  0.0
C  -6.15  9.231831  0.0
C  -7.38  8.52169  0.0
C  -7.38  11.362253  0.0
C  -8.61  10.652112  0.0
C  -8.61  13.492676  0.0
C  -9.84  12.782535  0.0
C  -9.84  15.623098  0.0
C  -11.07  14.912957  0.0
C  -11.07  17.753521  0.0
C  -12.3  17.04338  0.0
C  -12.3  19.883943  0.0
C  -13.53  19.173802  0.0
C  -13.53  22.014366  0.0
C  -14.76  21.304225  0.0
C  -14.76  24.144788  0.0
C  -15.99  23.434647  0.0
C  -15.99  26.275211  0.0
C  -17.22  25.56507  0.0
C  -17.22  28.405633  0.0
C  -18.45  27.695492  0.0
C  -18.45  30.536056  0.0
C  -19.68  29.825915  0.0
C  -19.68  32.666478  0.0
C  -20.91  31.956337  0.0
C  -20.91  34.796901  0.0
C  -22.14  34.08676  0.0
C  -23.37  36.217182  0.0
C  -2.46  4.260845  0.0
C  -2.46  7.101408  0.0
C  -3.69  6.391267  0.0
C  -3.69  9.231831  0.0
C  -4.92  8.52169  0.0
C  -4.92  11.362253  0.0
C  -6.15  10.652112  0.0
C  -6.15  13.492676  0.0
C  -7.38  12.782535  0.0
C  -7.38  15.623098  0.0
C  -8.61  14.912957  0.0
C  -8.61  17.753521  0.0
C  -9.84  17.04338  0.0
C  -9.84  19.883943  0.0
C  -11.07  19.173802  0.0
C  -11.07  22.014366  0.0
C  -12.3  21.304225  0.0
C  -12.3  24.144788  0.0
C  -13.53  23.434647  0.0
C  -13.53  26.275211  0.0
C  -14.76  25.56507  0.0
C  -14.76  28.405633  0.0
C  -15.99  27.695492  0.0
C  -15.99  30.536056  0.0
C  -17.22  29.825915  0.0
C  -17.22  32.666478  0.0
C  -18.45  31.956337  0.0
C  -19.68  34.08676  0.0
C  -3.69  10.652112  0.0
C  -3.69  13.492676  0.0
C  -4.92  12.782535  0.0
C  -4.92  15.623098  0.0
C  -6.15  14.912957  0.0
C  -6.15  17.753521  0.0
C  -7.38  17.04338  0.0
C  -7.38  19.883943  0.0
C  -8.61  19.173802  0.0
C  -8.61  22.014366  0.0
C  -9.84  21.304225  0.0
C  -9.84  24.144788  0.0
C  -11.07  23.434647  0.0
C  -11.07  26.275211  0.0
C  -12.3  25.56507  0.0
C  -12.3  28.405633  0.0
C  -13.53  27.695492  0.0
C  -13.53  30.536056  0.0
C  -14.76  29.825915  0.0
C  -15.99  31.956337  0.0
C  -3.69  14.912957  0.0
C  -3.69  17.753521  0.0
C  -4.92  17.04338  0.0
C  -4.92  19.883943  0.0
C  -6.15  19.173802  0.0
C  -6.15  22.014366  0.0
C  -7.38  21.304225  0.0
C  -7.38  24.144788  0.0
C  -8.61  23.434647  0.0
C  -8.61  26.275211  0.0
C  -9.84  25.56507  0.0
C  -9.84  28.405633  0.0
C  -11.07  27.695492  0.0
C  -12.3  29.825915  0.0
C  -3.69  19.173802  0.0
C  -3.69  22.014366  0.0
C  -4.92  21.304225  0.0
C  -4.92  24.144788  0.0
C  -6.15  23.434647  0.0
C  -6.15  26.275211  0.0
C  -7.38  25.56507  0.0
C  -7.38  28.405633  0.0
C  -8.61  27.695492  0.0
C  -3.69  23.434647  0.0
C  -3.69  26.275211  0.0
C  -4.92  25.56507  0.0
C  -6.15  27.695492  0.0
C  -24.474094  11.367845  3.3
C  -25.88811  13.380843  3.3
C  -20.609764  9.572922  3.3
C  -22.02378  11.58592  3.3
C  -23.185984  10.769537  3.3
C  -23.437795  13.598917  3.3
C  -24.6  12.782535  3.3
C  -24.851811  15.611915  3.3
C  -26.014016  14.795533  3.3
C  -26.265827  17.624913  3.3
C  -15.331417  5.765002  3.3
C  -16.745433  7.777999  3.3
C  -17.907638  6.961617  3.3
C  -18.159449  9.790997  3.3
C  -19.321654  8.974614  3.3
C  -19.573465  11.803994  3.3
C  -20.735669  10.987612  3.3
C  -20.98748  13.816992  3.3
C  -22.149685  13.00061  3.3
C  -22.401496  15.82999  3.3
C  -23.563701  15.013607  3.3
C  -23.815512  17.842987  3.3
C  -24.977717  17.026605  3.3
C  -25.229528  19.855985  3.3
C  -26.391732  19.039603  3.3
C  -26.643543  21.868982  3.3
C  -11.467087  3.970079  3.3
C  -12.881102  5.983076  3.3
C  -14.043307  5.166694  3.3
C  -14.295118  7.996074  3.3
C  -15.457323  7.179692  3.3
C  -15.709134  10.009072  3.3
C  -16.871339  9.192689  3.3
C  -17.12315  12.022069  3.3
C  -18.285354  11.205687  3.3
C  -18.537165  14.035067  3.3
C  -19.69937  13.218684  3.3
C  -19.951181  16.048064  3.3
C  -21.113386  15.231682  3.3
C  -21.365197  18.061062  3.3
C  -22.527402  17.24468  3.3
C  -22.779213  20.07406  3.3
C  -23.941417  19.257677  3.3
C  -24.193228  22.087057  3.3
C  -25.355433  21.270675  3.3
C  -25.607244  24.100055  3.3
C  -26.769449  23.283672  3.3
C  -27.02126  26.113052  3.3
C  -7.602756  2.175156  3.3
C  -9.016772  4.188153  3.3
C  -10.178976  3.371771  3.3
C  -10.430787  6.201151  3.3
C  -11.592992  5.384769  3.3
C  -11.844803  8.214149  3.3
C  -13.007008  7.397766  3.3
C  -13.258819  10.227146  3.3
C  -14.421024  9.410764  3.3
C  -14.672835  12.240144  3.3
C  -15.835039  11.423762  3.3
C  -16.08685  14.253141  3.3
C  -17.249055  13.436759  3.3
C  -17.500866  16.266139  3.3
C  -18.663071  15.449757  3.3
C  -18.914882  18.279137  3.3
C  -20.077087  17.462754  3.3
C  -20.328898  20.292134  3.3
C  -21.491102  19.475752  3.3
C  -21.742913  22.305132  3.3
C  -22.905118  21.48875  3.3
C  -23.156929  24.31813  3.3
C  -24.319134  23.501747  3.3
C  -24.570945  26.331127  3.3
C  -25.73315  25.514745  3.3
C  -25.984961  28.344125  3.3
C  -27.147165  27.527742  3.3
C  -27.398976  30.357122  3.3
C  -3.738425  0.380233  3.3
C  -5.152441  2.393231  3.3
C  -6.314646  1.576848  3.3
C  -6.566457  4.406228  3.3
C  -7.728661  3.589846  3.3
C  -7.980472  6.419226  3.3
C  -9.142677  5.602843  3.3
C  -9.394488  8.432223  3.3
C  -10.556693  7.615841  3.3
C  -10.808504  10.445221  3.3
C  -11.970709  9.628839  3.3
C  -12.22252  12.458219  3.3
C  -13.384724  11.641836  3.3
C  -13.636535  14.471216  3.3
C  -14.79874  13.654834  3.3
C  -15.050551  16.484214  3.3
C  -16.212756  15.667831  3.3
C  -16.464567  18.497211  3.3
C  -17.626772  17.680829  3.3
C  -17.878583  20.510209  3.3
C  -19.040787  19.693827  3.3
C  -19.292598  22.523207  3.3
C  -20.454803  21.706824  3.3
C  -20.706614  24.536204  3.3
C  -21.868819  23.719822  3.3
C  -22.12063  26.549202  3.3
C  -23.282835  25.73282  3.3
C  -23.534646  28.5622  3.3
C  -24.69685  27.745817  3.3
C  -24.948661  30.575197  3.3
C  -26.110866  29.758815  3.3
C  -26.362677  32.588195  3.3
C  -27.524882  31.771812  3.3
C  -2.450315  -0.218075  3.3
C  -2.702126  2.611305  3.3
C  -3.864331  1.794923  3.3
C  -4.116142  4.624303  3.3
C  -5.278346  3.807921  3.3
C  -5.530157  6.6373  3.3
C  -6.692362  5.820918  3.3
C  -6.944173  8.650298  3.3
C  -8.106378  7.833916  3.3
C  -8.358189  10.663296  3.3
C  -9.520394  9.846913  3.3
C  -9.772205  12.676293  3.3
C  -10.934409  11.859911  3.3
C  -11.18622  14.689291  3.3
C  -12.348425  13.872909  3.3
C  -12.600236  16.702289  3.3
C  -13.762441  15.885906  3.3
C  -14.014252  18.715286  3.3
C  -15.176457  17.898904  3.3
C  -15.428268  20.728284  3.3
C  -16.590472  19.911901  3.3
C  -16.842283  22.741281  3.3
C  -18.004488  21.924899  3.3
C  -18.256299  24.754279  3.3
C  -19.418504  23.937897  3.3
C  -19.670315  26.767277  3.3
C  -20.83252  25.950894  3.3
C  -21.084331  28.780274  3.3
C  -22.246535  27.963892  3.3
C  -22.498346  30.793272  3.3
C  -23.660551  29.97689  3.3
C  -23.912362  32.80627  3.3
C  -25.074567  31.989887  3.3
C  -25.326378  34.819267  3.3
C  -26.488583  34.002885  3.3
C  -26.740394  36.832265  3.3
C  -2.828031  4.025995  3.3
C  -3.079843  6.855375  3.3
C  -4.242047  6.038993  3.3
C  -4.493858  8.868373  3.3
C  -5.656063  8.05199  3.3
C  -5.907874  10.88137  3.3
C  -7.070079  10.064988  3.3
C  -7.32189  12.894368  3.3
C  -8.484094  12.077986  3.3
C  -8.735906  14.907366  3.3
C  -9.89811  14.090983  3.3
C  -10.149921  16.920363  3.3
C  -11.312126  16.103981  3.3
C  -11.563937  18.933361  3.3
C  -12.726142  18.116979  3.3
C  -12.977953  20.946359  3.3
C  -14.140157  20.129976  3.3
C  -14.391968  22.959356  3.3
C  -15.554173  22.142974  3.3
C  -15.805984  24.972354  3.3
C  -16.968189  24.155971  3.3
C  -17.22  26.985351  3.3
C  -18.382205  26.168969  3.3
C  -18.634016  28.998349  3.3
C  -19.79622  28.181967  3.3
C  -20.048031  31.011347  3.3
C  -21.210236  30.194964  3.3
C  -21.462047  33.024344  3.3
C  -22.624252  32.207962  3.3
C  -22.876063  35.037342  3.3
C  -24.038268  34.22096  3.3
C  -24.290079  37.05034  3.3
C  -25.452283  36.233957  3.3
C  -26.866299  38.246955  3.3
C  -3.205748  8.270065  3.3
C  -3.457559  11.099445  3.3
C  -4.619764  10.283063  3.3
C  -4.871575  13.112443  3.3
C  -6.03378  12.29606  3.3
C  -6.285591  15.12544  3.3
C  -7.447795  14.309058  3.3
C  -7.699606  17.138438  3.3
C  -8.861811  16.322056  3.3
C  -9.113622  19.151436  3.3
C  -10.275827  18.335053  3.3
C  -10.527638  21.164433  3.3
C  -11.689843  20.348051  3.3
C  -11.941654  23.177431  3.3
C  -13.103858  22.361049  3.3
C  -13.355669  25.190429  3.3
C  -14.517874  24.374046  3.3
C  -14.769685  27.203426  3.3
C  -15.93189  26.387044  3.3
C  -16.183701  29.216424  3.3
C  -17.345906  28.400041  3.3
C  -17.597717  31.229421  3.3
C  -18.759921  30.413039  3.3
C  -19.011732  33.242419  3.3
C  -20.173937  32.426037  3.3
C  -20.425748  35.255417  3.3
C  -21.587953  34.439034  3.3
C  -23.001968  36.452032  3.3
C  -3.583465  12.514135  3.3
C  -3.835276  15.343515  3.3
C  -4.99748  14.527133  3.3
C  -5.249291  17.356513  3.3
C  -6.411496  16.54013  3.3
C  -6.663307  19.36951  3.3
C  -7.825512  18.553128  3.3
C  -8.077323  21.382508  3.3
C  -9.239528  20.566126  3.3
C  -9.491339  23.395506  3.3
C  -10.653543  22.579123  3.3
C  -10.905354  25.408503  3.3
C  -12.067559  24.592121  3.3
C  -12.31937  27.421501  3.3
C  -13.481575  26.605119  3.3
C  -13.733386  29.434499  3.3
C  -14.895591  28.618116  3.3
C  -15.147402  31.447496  3.3
C  -16.309606  30.631114  3.3
C  -17.723622  32.644111  3.3
C  -3.961181  16.758205  3.3
C  -4.212992  19.587585  3.3
C  -5.375197  18.771203  3.3
C  -5.627008  21.600583  3.3
C  -6.789213  20.7842  3.3
C  -7.041024  23.61358  3.3
C  -8.203228  22.797198  3.3
C  -8.455039  25.626578  3.3
C  -9.617244  24.810196  3.3
C  -9.869055  27.639576  3.3
C  -11.03126  26.823193  3.3
C  -11.283071  29.652573  3.3
C  -12.445276  28.836191  3.3
C  -13.859291  30.849189  3.3
C  -3.176693  21.818658  3.3
C  -4.338898  21.002275  3.3
C  -4.590709  23.831655  3.3
C  -5.752913  23.015273  3.3
C  -6.004724  25.844653  3.3
C  -7.166929  25.02827  3.3
C  -7.41874  27.85765  3.3
C  -8.580945  27.041268  3.3
C  -9.994961  29.054266  3.3
C  -3.302598  23.233348  3.3
C  -3.554409  26.062728  3.3
C  -4.716614  25.246345  3.3
C  -6.13063  27.259343  3.3

K_POINTS {GAMMA}