&CONTROL
  calculation  = "scf"
  prefix       = "lego"
  pseudo_dir   = "."
  outdir       = "."
  verbosity="high"
/
&SYSTEM
  ibrav     = 0
  celldm(1) = 5.888386
  nat       = 114
  ntyp      = 1
  vdw_corr = "grimme-d2"
  ecutwfc   = 60
  ecutrho = 600
/
&ELECTRONS
  conv_thr    = 1.D-8
  mixing_beta = 0.3D0
/
&IONS
 ion_dynamics="bfgs"
/

CELL_PARAMETERS {alat}
-0.5	4.330127	0.0
-4.0	1.732051	0.0
0.0	0.0	10.0

ATOMIC_SPECIES
xxxxxxx
xxxxxxx
xxxxxx

ATOMIC_POSITIONS {Angstrom}
S1  -12.464  3.598047  4.344408
S2  -12.464  3.598047  7.43464
S1  -14.022  6.296582  4.344408
S2  -14.022  6.296582  7.43464
S1  -15.58  8.995117  4.344408
S2  -15.58  8.995117  7.43464
S1  -7.79  0.899512  4.344408
S2  -7.79  0.899512  7.43464
S1  -9.348  3.598047  4.344408
S2  -9.348  3.598047  7.43464
Mo  -10.906  2.698535  5.889524
S1  -10.906  6.296582  4.344408
S2  -10.906  6.296582  7.43464
Mo  -12.464  5.39707  5.889524
S1  -12.464  8.995117  4.344408
S2  -12.464  8.995117  7.43464
Mo  -14.022  8.095605  5.889524
S1  -14.022  11.693652  4.344408
S2  -14.022  11.693652  7.43464
Mo  -15.58  10.794141  5.889524
S1  -15.58  14.392187  4.344408
S2  -15.58  14.392187  7.43464
S1  -4.674  0.899512  4.344408
S2  -4.674  0.899512  7.43464
Mo  -6.232  0.0  5.889524
S1  -6.232  3.598047  4.344408
S2  -6.232  3.598047  7.43464
Mo  -7.79  2.698535  5.889524
S1  -7.79  6.296582  4.344408
S2  -7.79  6.296582  7.43464
Mo  -9.348  5.39707  5.889524
S1  -9.348  8.995117  4.344408
S2  -9.348  8.995117  7.43464
Mo  -10.906  8.095605  5.889524
S1  -10.906  11.693652  4.344408
S2  -10.906  11.693652  7.43464
Mo  -12.464  10.794141  5.889524
S1  -12.464  14.392187  4.344408
S2  -12.464  14.392187  7.43464
Mo  -14.022  13.492676  5.889524
Mo  -15.58  16.191211  5.889524
Mo  -3.116  0.0  5.889524
Mo  -4.674  2.698535  5.889524
S1  -4.674  6.296582  4.344408
S2  -4.674  6.296582  7.43464
Mo  -6.232  5.39707  5.889524
S1  -6.232  8.995117  4.344408
S2  -6.232  8.995117  7.43464
Mo  -7.79  8.095605  5.889524
S1  -7.79  11.693652  4.344408
S2  -7.79  11.693652  7.43464
Mo  -9.348  10.794141  5.889524
Mo  -10.906  13.492676  5.889524
Mo  -4.674  8.095605  5.889524
S1  -4.674  11.693652  4.344408
S2  -4.674  11.693652  7.43464
Mo  -6.232  10.794141  5.889524
S1  -9.922  1.372939  10.244408
S2  -9.922  1.372939  13.33464
S1  -12.054  3.64539  10.244408
S2  -12.054  3.64539  13.33464
S1  -14.186  5.91784  10.244408
S2  -14.186  5.91784  13.33464
S1  -4.756  -0.189371  10.244408
S2  -4.756  -0.189371  13.33464
S1  -6.888  2.08308  10.244408
S2  -6.888  2.08308  13.33464
Mo  -8.2  0.852169  11.789524
S1  -9.02  4.35553  10.244408
S2  -9.02  4.35553  13.33464
Mo  -10.332  3.12462  11.789524
S1  -11.152  6.627981  10.244408
S2  -11.152  6.627981  13.33464
Mo  -12.464  5.39707  11.789524
S1  -13.284  8.900432  10.244408
S2  -13.284  8.900432  13.33464
Mo  -14.596  7.669521  11.789524
S1  -15.416  11.172882  10.244408
S2  -15.416  11.172882  13.33464
Mo  -3.034  -0.710141  11.789524
S1  -3.854  2.793221  10.244408
S2  -3.854  2.793221  13.33464
Mo  -5.166  1.56231  11.789524
S1  -5.986  5.065671  10.244408
S2  -5.986  5.065671  13.33464
Mo  -7.298  3.83476  11.789524
S1  -8.118  7.338122  10.244408
S2  -8.118  7.338122  13.33464
Mo  -9.43  6.107211  11.789524
S1  -10.25  9.610573  10.244408
S2  -10.25  9.610573  13.33464
Mo  -11.562  8.379662  11.789524
S1  -12.382  11.883023  10.244408
S2  -12.382  11.883023  13.33464
Mo  -13.694  10.652112  11.789524
S1  -14.514  14.155474  10.244408
S2  -14.514  14.155474  13.33464
Mo  -15.826  12.924563  11.789524
Mo  -4.264  4.544901  11.789524
S1  -5.084  8.048263  10.244408
S2  -5.084  8.048263  13.33464
Mo  -6.396  6.817352  11.789524
S1  -7.216  10.320713  10.244408
S2  -7.216  10.320713  13.33464
Mo  -8.528  9.089803  11.789524
S1  -9.348  12.593164  10.244408
S2  -9.348  12.593164  13.33464
Mo  -10.66  11.362253  11.789524
Mo  -12.792  13.634704  11.789524
Mo  -14.924  15.907155  11.789524
S1  -4.182  11.030854  10.244408
S2  -4.182  11.030854  13.33464
Mo  -5.494  9.799943  11.789524
Mo  -7.626  12.072394  11.789524

K_POINTS {GAMMA}