&CONTROL
  calculation  = "scf"
  prefix       = "lego"
  pseudo_dir   = "."
  outdir       = "."
  verbosity="high"
/
&SYSTEM
  ibrav     = 0
  celldm(1) = 5.888399
  nat       = 222
  ntyp      = 1
  vdw_corr = "grimme-d2"
  ecutwfc   = 60
  ecutrho = 600
/
&ELECTRONS
  conv_thr    = 1.D-8
  mixing_beta = 0.3D0
/
&IONS
 ion_dynamics="bfgs"
/

CELL_PARAMETERS {alat}
-0.5	6.062178	0.0
-5.5	2.598076	0.0
0.0	0.0	10.0

ATOMIC_SPECIES
xxxxxxx
xxxxxxx
xxxxxx

ATOMIC_POSITIONS {Angstrom}
S1  -17.138  6.296582  4.344408
S2  -17.138  6.296582  7.43464
S1  -18.696  8.995117  4.344408
S2  -18.696  8.995117  7.43464
S1  -12.464  3.598047  4.344408
S2  -12.464  3.598047  7.43464
S1  -14.022  6.296582  4.344408
S2  -14.022  6.296582  7.43464
Mo  -15.58  5.39707  5.889524
S1  -15.58  8.995117  4.344408
S2  -15.58  8.995117  7.43464
Mo  -17.138  8.095605  5.889524
S1  -17.138  11.693652  4.344408
S2  -17.138  11.693652  7.43464
Mo  -18.696  10.794141  5.889524
S1  -18.696  14.392187  4.344408
S2  -18.696  14.392187  7.43464
Mo  -20.254  13.492676  5.889524
S1  -20.254  17.090723  4.344408
S2  -20.254  17.090723  7.43464
S1  -7.79  0.899512  4.344408
S2  -7.79  0.899512  7.43464
S1  -9.348  3.598047  4.344408
S2  -9.348  3.598047  7.43464
Mo  -10.906  2.698535  5.889524
S1  -10.906  6.296582  4.344408
S2  -10.906  6.296582  7.43464
Mo  -12.464  5.39707  5.889524
S1  -12.464  8.995117  4.344408
S2  -12.464  8.995117  7.43464
Mo  -14.022  8.095605  5.889524
S1  -14.022  11.693652  4.344408
S2  -14.022  11.693652  7.43464
Mo  -15.58  10.794141  5.889524
S1  -15.58  14.392187  4.344408
S2  -15.58  14.392187  7.43464
Mo  -17.138  13.492676  5.889524
S1  -17.138  17.090723  4.344408
S2  -17.138  17.090723  7.43464
Mo  -18.696  16.191211  5.889524
S1  -18.696  19.789258  4.344408
S2  -18.696  19.789258  7.43464
Mo  -20.254  18.889746  5.889524
S1  -20.254  22.487793  4.344408
S2  -20.254  22.487793  7.43464
S1  -4.674  0.899512  4.344408
S2  -4.674  0.899512  7.43464
Mo  -6.232  0.0  5.889524
S1  -6.232  3.598047  4.344408
S2  -6.232  3.598047  7.43464
Mo  -7.79  2.698535  5.889524
S1  -7.79  6.296582  4.344408
S2  -7.79  6.296582  7.43464
Mo  -9.348  5.39707  5.889524
S1  -9.348  8.995117  4.344408
S2  -9.348  8.995117  7.43464
Mo  -10.906  8.095605  5.889524
S1  -10.906  11.693652  4.344408
S2  -10.906  11.693652  7.43464
Mo  -12.464  10.794141  5.889524
S1  -12.464  14.392187  4.344408
S2  -12.464  14.392187  7.43464
Mo  -14.022  13.492676  5.889524
S1  -14.022  17.090723  4.344408
S2  -14.022  17.090723  7.43464
Mo  -15.58  16.191211  5.889524
S1  -15.58  19.789258  4.344408
S2  -15.58  19.789258  7.43464
Mo  -17.138  18.889746  5.889524
S1  -17.138  22.487793  4.344408
S2  -17.138  22.487793  7.43464
Mo  -18.696  21.588281  5.889524
Mo  -20.254  24.286816  5.889524
Mo  -3.116  0.0  5.889524
S1  -3.116  3.598047  4.344408
S2  -3.116  3.598047  7.43464
Mo  -4.674  2.698535  5.889524
S1  -4.674  6.296582  4.344408
S2  -4.674  6.296582  7.43464
Mo  -6.232  5.39707  5.889524
S1  -6.232  8.995117  4.344408
S2  -6.232  8.995117  7.43464
Mo  -7.79  8.095605  5.889524
S1  -7.79  11.693652  4.344408
S2  -7.79  11.693652  7.43464
Mo  -9.348  10.794141  5.889524
S1  -9.348  14.392187  4.344408
S2  -9.348  14.392187  7.43464
Mo  -10.906  13.492676  5.889524
S1  -10.906  17.090723  4.344408
S2  -10.906  17.090723  7.43464
Mo  -12.464  16.191211  5.889524
S1  -12.464  19.789258  4.344408
S2  -12.464  19.789258  7.43464
Mo  -14.022  18.889746  5.889524
Mo  -15.58  21.588281  5.889524
Mo  -4.674  8.095605  5.889524
S1  -4.674  11.693652  4.344408
S2  -4.674  11.693652  7.43464
Mo  -6.232  10.794141  5.889524
S1  -6.232  14.392187  4.344408
S2  -6.232  14.392187  7.43464
Mo  -7.79  13.492676  5.889524
S1  -7.79  17.090723  4.344408
S2  -7.79  17.090723  7.43464
Mo  -9.348  16.191211  5.889524
Mo  -10.906  18.889746  5.889524
Mo  -4.674  13.492676  5.889524
S1  -4.674  17.090723  4.344408
S2  -4.674  17.090723  7.43464
Mo  -6.232  16.191211  5.889524
S1  -18.52757  6.952977  10.244408
S2  -18.52757  6.952977  13.33464
S1  -11.495514  2.649909  10.244408
S2  -11.495514  2.649909  13.33464
Mo  -13.179839  3.281998  11.789524
S1  -13.474596  5.05671  10.244408
S2  -13.474596  5.05671  13.33464
Mo  -15.158921  5.688799  11.789524
S1  -15.453678  7.463511  10.244408
S2  -15.453678  7.463511  13.33464
Mo  -17.138003  8.0956  11.789524
S1  -17.43276  9.870312  10.244408
S2  -17.43276  9.870312  13.33464
Mo  -19.117084  10.502401  11.789524
S1  -19.411842  12.277113  10.244408
S2  -19.411842  12.277113  13.33464
S1  -6.442541  0.753643  10.244408
S2  -6.442541  0.753643  13.33464
Mo  -8.126865  1.385732  11.789524
S1  -8.421623  3.160444  10.244408
S2  -8.421623  3.160444  13.33464
Mo  -10.105947  3.792533  11.789524
S1  -10.400704  5.567245  10.244408
S2  -10.400704  5.567245  13.33464
Mo  -12.085029  6.199334  11.789524
S1  -12.379786  7.974046  10.244408
S2  -12.379786  7.974046  13.33464
Mo  -14.064111  8.606135  11.789524
S1  -14.358868  10.380847  10.244408
S2  -14.358868  10.380847  13.33464
Mo  -16.043193  11.012936  11.789524
S1  -16.33795  12.787648  10.244408
S2  -16.33795  12.787648  13.33464
Mo  -18.022274  13.419737  11.789524
S1  -18.317032  15.194449  10.244408
S2  -18.317032  15.194449  13.33464
Mo  -20.001356  15.826538  11.789524
S1  -20.296114  17.60125  10.244408
S2  -20.296114  17.60125  13.33464
Mo  -3.073892  -0.510535  11.789524
S1  -3.368649  1.264178  10.244408
S2  -3.368649  1.264178  13.33464
Mo  -5.052974  1.896266  11.789524
S1  -5.347731  3.670979  10.244408
S2  -5.347731  3.670979  13.33464
Mo  -7.032055  4.303067  11.789524
S1  -7.326813  6.07778  10.244408
S2  -7.326813  6.07778  13.33464
Mo  -9.011137  6.709868  11.789524
S1  -9.305895  8.484581  10.244408
S2  -9.305895  8.484581  13.33464
Mo  -10.990219  9.116669  11.789524
S1  -11.284976  10.891382  10.244408
S2  -11.284976  10.891382  13.33464
Mo  -12.969301  11.52347  11.789524
S1  -13.264058  13.298183  10.244408
S2  -13.264058  13.298183  13.33464
Mo  -14.948383  13.930271  11.789524
S1  -15.24314  15.704984  10.244408
S2  -15.24314  15.704984  13.33464
Mo  -16.927465  16.337072  11.789524
S1  -17.222222  18.111785  10.244408
S2  -17.222222  18.111785  13.33464
Mo  -18.906546  18.743873  11.789524
S1  -19.201304  20.518586  10.244408
S2  -19.201304  20.518586  13.33464
Mo  -20.885628  21.150674  11.789524
Mo  -3.958164  4.813602  11.789524
S1  -4.252921  6.588314  10.244408
S2  -4.252921  6.588314  13.33464
Mo  -5.937246  7.220403  11.789524
S1  -6.232003  8.995115  10.244408
S2  -6.232003  8.995115  13.33464
Mo  -7.916327  9.627204  11.789524
S1  -8.211085  11.401916  10.244408
S2  -8.211085  11.401916  13.33464
Mo  -9.895409  12.034005  11.789524
S1  -10.190166  13.808717  10.244408
S2  -10.190166  13.808717  13.33464
Mo  -11.874491  14.440806  11.789524
S1  -12.169248  16.215518  10.244408
S2  -12.169248  16.215518  13.33464
Mo  -13.853573  16.847607  11.789524
S1  -14.14833  18.622319  10.244408
S2  -14.14833  18.622319  13.33464
Mo  -15.832655  19.254408  11.789524
S1  -16.127412  21.02912  10.244408
S2  -16.127412  21.02912  13.33464
Mo  -17.811737  21.661209  11.789524
S1  -18.106494  23.435921  10.244408
S2  -18.106494  23.435921  13.33464
Mo  -19.790818  24.06801  11.789524
Mo  -4.842436  10.137739  11.789524
S1  -5.137193  11.912451  10.244408
S2  -5.137193  11.912451  13.33464
Mo  -6.821517  12.54454  11.789524
S1  -7.116275  14.319252  10.244408
S2  -7.116275  14.319252  13.33464
Mo  -8.800599  14.951341  11.789524
S1  -9.095357  16.726053  10.244408
S2  -9.095357  16.726053  13.33464
Mo  -10.779681  17.358142  11.789524
S1  -11.074438  19.132854  10.244408
S2  -11.074438  19.132854  13.33464
Mo  -12.758763  19.764943  11.789524
S1  -4.042383  14.829786  10.244408
S2  -4.042383  14.829786  13.33464
Mo  -5.726708  15.461875  11.789524
S1  -6.021465  17.236587  10.244408
S2  -6.021465  17.236587  13.33464
Mo  -7.705789  17.868676  11.789524

K_POINTS {GAMMA}