&CONTROL
  calculation  = "scf"
  prefix       = "lego"
  pseudo_dir   = "."
  outdir       = "."
  verbosity="high"
/
&SYSTEM
  ibrav     = 0
  celldm(1) = 5.952649
  nat       = 42
  ntyp      = 1
  vdw_corr = "grimme-d2"
  ecutwfc   = 60
  ecutrho = 600
/
&ELECTRONS
  conv_thr    = 1.D-8
  mixing_beta = 0.3D0
/
&IONS
 ion_dynamics="bfgs"
/

CELL_PARAMETERS {alat}
-0.5	2.598076	0.0
-2.5	0.866025	0.0
0.0	0.0	10.0

ATOMIC_SPECIES
xxxxxxx
xxxxxxx
xxxxxx

ATOMIC_POSITIONS {Angstrom}
S1  -7.875  0.909327  4.344408
S2  -7.875  0.909327  7.43464
S1  -9.45  3.637307  4.344408
S2  -9.45  3.637307  7.43464
S1  -11.025  6.365287  4.344408
S2  -11.025  6.365287  7.43464
S1  -4.725  0.909327  4.344408
S2  -4.725  0.909327  7.43464
Mo  -6.3  0.0  5.889524
S1  -6.3  3.637307  4.344408
S2  -6.3  3.637307  7.43464
Mo  -7.875  2.72798  5.889524
S1  -7.875  6.365287  4.344408
S2  -7.875  6.365287  7.43464
Mo  -9.45  5.45596  5.889524
Mo  -11.025  8.18394  5.889524
Mo  -3.15  0.0  5.889524
Mo  -4.725  2.72798  5.889524
S1  -4.725  6.365287  4.344408
S2  -4.725  6.365287  7.43464
Mo  -6.3  5.45596  5.889524
S1  -9.0  1.29904  10.244408
S2  -9.0  1.29904  13.33464
Mo  -2.925  -1.169134  11.789524
S1  -3.6  0.519616  10.244408
S2  -3.6  0.519616  13.33464
Mo  -5.4  0.779424  11.789524
S1  -6.074999  2.468174  10.244408
S2  -6.074999  2.468174  13.33464
Mo  -7.874999  2.727982  11.789524
S1  -8.549999  4.416731  10.244408
S2  -8.549999  4.416731  13.33464
Mo  -10.349999  4.676539  11.789524
S1  -11.024999  6.365289  10.244408
S2  -11.024999  6.365289  13.33464
Mo  -4.949999  3.897115  11.789524
S1  -5.624999  5.585865  10.244408
S2  -5.624999  5.585865  13.33464
Mo  -7.424999  5.845673  11.789524
S1  -8.099998  7.534423  10.244408
S2  -8.099998  7.534423  13.33464
Mo  -9.899998  7.794231  11.789524

K_POINTS {GAMMA}