&CONTROL
  calculation  = "scf"
  prefix       = "lego"
  pseudo_dir   = "."
  outdir       = "."
  verbosity="high"
/
&SYSTEM
  ibrav     = 0
  celldm(1) = 4.648726
  nat       = 28
  ntyp      = 1
  vdw_corr = "grimme-d2"
  ecutwfc   = 60
  ecutrho = 600
/
&ELECTRONS
  conv_thr    = 1.D-8
  mixing_beta = 0.3D0
/
&IONS
 ion_dynamics="bfgs"
/

CELL_PARAMETERS {alat}
-0.5	2.598076	0.0
-2.5	0.866025	0.0
0.0	0.0	10.0

ATOMIC_SPECIES
xxxxxxx
xxxxxxx
xxxxxx

ATOMIC_POSITIONS {Angstrom}
C  -6.15  0.710141  0.0
C  -7.38  2.840563  0.0
C  -8.61  4.970986  0.0
C  -3.69  0.710141  0.0
C  -4.92  0.0  0.0
C  -4.92  2.840563  0.0
C  -6.15  2.130422  0.0
C  -6.15  4.970986  0.0
C  -7.38  4.260845  0.0
C  -8.61  6.391267  0.0
C  -2.46  0.0  0.0
C  -3.69  2.130422  0.0
C  -3.69  4.970986  0.0
C  -4.92  4.260845  0.0
C  -3.69  -0.71014  3.3
C  -5.622857  0.811591  3.3
C  -7.555714  2.333321  3.3
C  -2.284286  -0.913038  3.3
C  -3.338571  1.724628  3.3
C  -4.217143  0.608693  3.3
C  -5.271428  3.246359  3.3
C  -6.15  2.130424  3.3
C  -7.204285  4.76809  3.3
C  -8.082856  3.652154  3.3
C  -2.987142  4.159397  3.3
C  -3.865714  3.043461  3.3
C  -5.79857  4.565192  3.3
C  -7.731427  6.086923  3.3

K_POINTS {GAMMA}