&CONTROL
  calculation  = "scf"
  prefix       = "lego"
  pseudo_dir   = "."
  outdir       = "."
  verbosity="high"
/
&SYSTEM
  ibrav     = 0
  celldm(1) = 5.918622
  nat       = 8322
  ntyp      = 1
  vdw_corr = "grimme-d2"
  ecutwfc   = 60
  ecutrho = 600
/
&ELECTRONS
  conv_thr    = 1.D-8
  mixing_beta = 0.3D0
/
&IONS
 ion_dynamics="bfgs"
/

CELL_PARAMETERS {alat}
-0.5	37.239092	0.0
-32.5	18.186533	0.0
0.0	0.0	10.0

ATOMIC_SPECIES
xxxxxxx
xxxxxxx
xxxxxx

ATOMIC_POSITIONS {Angstrom}
S1  -101.79  55.151962  4.344408
S2  -101.79  55.151962  7.43464
S1  -103.356  57.864353  4.344408
S2  -103.356  57.864353  7.43464
S1  -97.092  52.43957  4.344408
S2  -97.092  52.43957  7.43464
S1  -98.658  55.151962  4.344408
S2  -98.658  55.151962  7.43464
Mo  -100.224  54.247831  5.889524
S1  -100.224  57.864353  4.344408
S2  -100.224  57.864353  7.43464
Mo  -101.79  56.960223  5.889524
S1  -101.79  60.576745  4.344408
S2  -101.79  60.576745  7.43464
Mo  -103.356  59.672614  5.889524
S1  -103.356  63.289136  4.344408
S2  -103.356  63.289136  7.43464
S1  -92.394  49.727178  4.344408
S2  -92.394  49.727178  7.43464
S1  -93.96  52.43957  4.344408
S2  -93.96  52.43957  7.43464
Mo  -95.526  51.53544  5.889524
S1  -95.526  55.151962  4.344408
S2  -95.526  55.151962  7.43464
Mo  -97.092  54.247831  5.889524
S1  -97.092  57.864353  4.344408
S2  -97.092  57.864353  7.43464
Mo  -98.658  56.960223  5.889524
S1  -98.658  60.576745  4.344408
S2  -98.658  60.576745  7.43464
Mo  -100.224  59.672614  5.889524
S1  -100.224  63.289136  4.344408
S2  -100.224  63.289136  7.43464
Mo  -101.79  62.385006  5.889524
S1  -101.79  66.001528  4.344408
S2  -101.79  66.001528  7.43464
Mo  -103.356  65.097397  5.889524
S1  -103.356  68.713919  4.344408
S2  -103.356  68.713919  7.43464
S1  -87.696  47.014787  4.344408
S2  -87.696  47.014787  7.43464
S1  -89.262  49.727178  4.344408
S2  -89.262  49.727178  7.43464
Mo  -90.828  48.823048  5.889524
S1  -90.828  52.43957  4.344408
S2  -90.828  52.43957  7.43464
Mo  -92.394  51.53544  5.889524
S1  -92.394  55.151962  4.344408
S2  -92.394  55.151962  7.43464
Mo  -93.96  54.247831  5.889524
S1  -93.96  57.864353  4.344408
S2  -93.96  57.864353  7.43464
Mo  -95.526  56.960223  5.889524
S1  -95.526  60.576745  4.344408
S2  -95.526  60.576745  7.43464
Mo  -97.092  59.672614  5.889524
S1  -97.092  63.289136  4.344408
S2  -97.092  63.289136  7.43464
Mo  -98.658  62.385006  5.889524
S1  -98.658  66.001528  4.344408
S2  -98.658  66.001528  7.43464
Mo  -100.224  65.097397  5.889524
S1  -100.224  68.713919  4.344408
S2  -100.224  68.713919  7.43464
Mo  -101.79  67.809789  5.889524
S1  -101.79  71.426311  4.344408
S2  -101.79  71.426311  7.43464
Mo  -103.356  70.52218  5.889524
S1  -103.356  74.138702  4.344408
S2  -103.356  74.138702  7.43464
S1  -82.998  44.302395  4.344408
S2  -82.998  44.302395  7.43464
S1  -84.564  47.014787  4.344408
S2  -84.564  47.014787  7.43464
Mo  -86.13  46.110656  5.889524
S1  -86.13  49.727178  4.344408
S2  -86.13  49.727178  7.43464
Mo  -87.696  48.823048  5.889524
S1  -87.696  52.43957  4.344408
S2  -87.696  52.43957  7.43464
Mo  -89.262  51.53544  5.889524
S1  -89.262  55.151962  4.344408
S2  -89.262  55.151962  7.43464
Mo  -90.828  54.247831  5.889524
S1  -90.828  57.864353  4.344408
S2  -90.828  57.864353  7.43464
Mo  -92.394  56.960223  5.889524
S1  -92.394  60.576745  4.344408
S2  -92.394  60.576745  7.43464
Mo  -93.96  59.672614  5.889524
S1  -93.96  63.289136  4.344408
S2  -93.96  63.289136  7.43464
Mo  -95.526  62.385006  5.889524
S1  -95.526  66.001528  4.344408
S2  -95.526  66.001528  7.43464
Mo  -97.092  65.097397  5.889524
S1  -97.092  68.713919  4.344408
S2  -97.092  68.713919  7.43464
Mo  -98.658  67.809789  5.889524
S1  -98.658  71.426311  4.344408
S2  -98.658  71.426311  7.43464
Mo  -100.224  70.52218  5.889524
S1  -100.224  74.138702  4.344408
S2  -100.224  74.138702  7.43464
Mo  -101.79  73.234572  5.889524
S1  -101.79  76.851094  4.344408
S2  -101.79  76.851094  7.43464
Mo  -103.356  75.946963  5.889524
S1  -103.356  79.563486  4.344408
S2  -103.356  79.563486  7.43464
S1  -78.3  41.590004  4.344408
S2  -78.3  41.590004  7.43464
S1  -79.866  44.302395  4.344408
S2  -79.866  44.302395  7.43464
Mo  -81.432  43.398265  5.889524
S1  -81.432  47.014787  4.344408
S2  -81.432  47.014787  7.43464
Mo  -82.998  46.110656  5.889524
S1  -82.998  49.727178  4.344408
S2  -82.998  49.727178  7.43464
Mo  -84.564  48.823048  5.889524
S1  -84.564  52.43957  4.344408
S2  -84.564  52.43957  7.43464
Mo  -86.13  51.53544  5.889524
S1  -86.13  55.151962  4.344408
S2  -86.13  55.151962  7.43464
Mo  -87.696  54.247831  5.889524
S1  -87.696  57.864353  4.344408
S2  -87.696  57.864353  7.43464
Mo  -89.262  56.960223  5.889524
S1  -89.262  60.576745  4.344408
S2  -89.262  60.576745  7.43464
Mo  -90.828  59.672614  5.889524
S1  -90.828  63.289136  4.344408
S2  -90.828  63.289136  7.43464
Mo  -92.394  62.385006  5.889524
S1  -92.394  66.001528  4.344408
S2  -92.394  66.001528  7.43464
Mo  -93.96  65.097397  5.889524
S1  -93.96  68.713919  4.344408
S2  -93.96  68.713919  7.43464
Mo  -95.526  67.809789  5.889524
S1  -95.526  71.426311  4.344408
S2  -95.526  71.426311  7.43464
Mo  -97.092  70.52218  5.889524
S1  -97.092  74.138702  4.344408
S2  -97.092  74.138702  7.43464
Mo  -98.658  73.234572  5.889524
S1  -98.658  76.851094  4.344408
S2  -98.658  76.851094  7.43464
Mo  -100.224  75.946963  5.889524
S1  -100.224  79.563486  4.344408
S2  -100.224  79.563486  7.43464
Mo  -101.79  78.659355  5.889524
S1  -101.79  82.275877  4.344408
S2  -101.79  82.275877  7.43464
Mo  -103.356  81.371747  5.889524
S1  -103.356  84.988269  4.344408
S2  -103.356  84.988269  7.43464
S1  -73.602  38.877612  4.344408
S2  -73.602  38.877612  7.43464
S1  -75.168  41.590004  4.344408
S2  -75.168  41.590004  7.43464
Mo  -76.734  40.685873  5.889524
S1  -76.734  44.302395  4.344408
S2  -76.734  44.302395  7.43464
Mo  -78.3  43.398265  5.889524
S1  -78.3  47.014787  4.344408
S2  -78.3  47.014787  7.43464
Mo  -79.866  46.110656  5.889524
S1  -79.866  49.727178  4.344408
S2  -79.866  49.727178  7.43464
Mo  -81.432  48.823048  5.889524
S1  -81.432  52.43957  4.344408
S2  -81.432  52.43957  7.43464
Mo  -82.998  51.53544  5.889524
S1  -82.998  55.151962  4.344408
S2  -82.998  55.151962  7.43464
Mo  -84.564  54.247831  5.889524
S1  -84.564  57.864353  4.344408
S2  -84.564  57.864353  7.43464
Mo  -86.13  56.960223  5.889524
S1  -86.13  60.576745  4.344408
S2  -86.13  60.576745  7.43464
Mo  -87.696  59.672614  5.889524
S1  -87.696  63.289136  4.344408
S2  -87.696  63.289136  7.43464
Mo  -89.262  62.385006  5.889524
S1  -89.262  66.001528  4.344408
S2  -89.262  66.001528  7.43464
Mo  -90.828  65.097397  5.889524
S1  -90.828  68.713919  4.344408
S2  -90.828  68.713919  7.43464
Mo  -92.394  67.809789  5.889524
S1  -92.394  71.426311  4.344408
S2  -92.394  71.426311  7.43464
Mo  -93.96  70.52218  5.889524
S1  -93.96  74.138702  4.344408
S2  -93.96  74.138702  7.43464
Mo  -95.526  73.234572  5.889524
S1  -95.526  76.851094  4.344408
S2  -95.526  76.851094  7.43464
Mo  -97.092  75.946963  5.889524
S1  -97.092  79.563486  4.344408
S2  -97.092  79.563486  7.43464
Mo  -98.658  78.659355  5.889524
S1  -98.658  82.275877  4.344408
S2  -98.658  82.275877  7.43464
Mo  -100.224  81.371747  5.889524
S1  -100.224  84.988269  4.344408
S2  -100.224  84.988269  7.43464
Mo  -101.79  84.084138  5.889524
S1  -101.79  87.70066  4.344408
S2  -101.79  87.70066  7.43464
Mo  -103.356  86.79653  5.889524
S1  -103.356  90.413052  4.344408
S2  -103.356  90.413052  7.43464
Mo  -104.922  89.508921  5.889524
S1  -104.922  93.125443  4.344408
S2  -104.922  93.125443  7.43464
S1  -68.904  36.165221  4.344408
S2  -68.904  36.165221  7.43464
S1  -70.47  38.877612  4.344408
S2  -70.47  38.877612  7.43464
Mo  -72.036  37.973482  5.889524
S1  -72.036  41.590004  4.344408
S2  -72.036  41.590004  7.43464
Mo  -73.602  40.685873  5.889524
S1  -73.602  44.302395  4.344408
S2  -73.602  44.302395  7.43464
Mo  -75.168  43.398265  5.889524
S1  -75.168  47.014787  4.344408
S2  -75.168  47.014787  7.43464
Mo  -76.734  46.110656  5.889524
S1  -76.734  49.727178  4.344408
S2  -76.734  49.727178  7.43464
Mo  -78.3  48.823048  5.889524
S1  -78.3  52.43957  4.344408
S2  -78.3  52.43957  7.43464
Mo  -79.866  51.53544  5.889524
S1  -79.866  55.151962  4.344408
S2  -79.866  55.151962  7.43464
Mo  -81.432  54.247831  5.889524
S1  -81.432  57.864353  4.344408
S2  -81.432  57.864353  7.43464
Mo  -82.998  56.960223  5.889524
S1  -82.998  60.576745  4.344408
S2  -82.998  60.576745  7.43464
Mo  -84.564  59.672614  5.889524
S1  -84.564  63.289136  4.344408
S2  -84.564  63.289136  7.43464
Mo  -86.13  62.385006  5.889524
S1  -86.13  66.001528  4.344408
S2  -86.13  66.001528  7.43464
Mo  -87.696  65.097397  5.889524
S1  -87.696  68.713919  4.344408
S2  -87.696  68.713919  7.43464
Mo  -89.262  67.809789  5.889524
S1  -89.262  71.426311  4.344408
S2  -89.262  71.426311  7.43464
Mo  -90.828  70.52218  5.889524
S1  -90.828  74.138702  4.344408
S2  -90.828  74.138702  7.43464
Mo  -92.394  73.234572  5.889524
S1  -92.394  76.851094  4.344408
S2  -92.394  76.851094  7.43464
Mo  -93.96  75.946963  5.889524
S1  -93.96  79.563486  4.344408
S2  -93.96  79.563486  7.43464
Mo  -95.526  78.659355  5.889524
S1  -95.526  82.275877  4.344408
S2  -95.526  82.275877  7.43464
Mo  -97.092  81.371747  5.889524
S1  -97.092  84.988269  4.344408
S2  -97.092  84.988269  7.43464
Mo  -98.658  84.084138  5.889524
S1  -98.658  87.70066  4.344408
S2  -98.658  87.70066  7.43464
Mo  -100.224  86.79653  5.889524
S1  -100.224  90.413052  4.344408
S2  -100.224  90.413052  7.43464
Mo  -101.79  89.508921  5.889524
S1  -101.79  93.125443  4.344408
S2  -101.79  93.125443  7.43464
Mo  -103.356  92.221313  5.889524
S1  -103.356  95.837835  4.344408
S2  -103.356  95.837835  7.43464
Mo  -104.922  94.933704  5.889524
S1  -104.922  98.550226  4.344408
S2  -104.922  98.550226  7.43464
S1  -64.206  33.452829  4.344408
S2  -64.206  33.452829  7.43464
S1  -65.772  36.165221  4.344408
S2  -65.772  36.165221  7.43464
Mo  -67.338  35.26109  5.889524
S1  -67.338  38.877612  4.344408
S2  -67.338  38.877612  7.43464
Mo  -68.904  37.973482  5.889524
S1  -68.904  41.590004  4.344408
S2  -68.904  41.590004  7.43464
Mo  -70.47  40.685873  5.889524
S1  -70.47  44.302395  4.344408
S2  -70.47  44.302395  7.43464
Mo  -72.036  43.398265  5.889524
S1  -72.036  47.014787  4.344408
S2  -72.036  47.014787  7.43464
Mo  -73.602  46.110656  5.889524
S1  -73.602  49.727178  4.344408
S2  -73.602  49.727178  7.43464
Mo  -75.168  48.823048  5.889524
S1  -75.168  52.43957  4.344408
S2  -75.168  52.43957  7.43464
Mo  -76.734  51.53544  5.889524
S1  -76.734  55.151962  4.344408
S2  -76.734  55.151962  7.43464
Mo  -78.3  54.247831  5.889524
S1  -78.3  57.864353  4.344408
S2  -78.3  57.864353  7.43464
Mo  -79.866  56.960223  5.889524
S1  -79.866  60.576745  4.344408
S2  -79.866  60.576745  7.43464
Mo  -81.432  59.672614  5.889524
S1  -81.432  63.289136  4.344408
S2  -81.432  63.289136  7.43464
Mo  -82.998  62.385006  5.889524
S1  -82.998  66.001528  4.344408
S2  -82.998  66.001528  7.43464
Mo  -84.564  65.097397  5.889524
S1  -84.564  68.713919  4.344408
S2  -84.564  68.713919  7.43464
Mo  -86.13  67.809789  5.889524
S1  -86.13  71.426311  4.344408
S2  -86.13  71.426311  7.43464
Mo  -87.696  70.52218  5.889524
S1  -87.696  74.138702  4.344408
S2  -87.696  74.138702  7.43464
Mo  -89.262  73.234572  5.889524
S1  -89.262  76.851094  4.344408
S2  -89.262  76.851094  7.43464
Mo  -90.828  75.946963  5.889524
S1  -90.828  79.563486  4.344408
S2  -90.828  79.563486  7.43464
Mo  -92.394  78.659355  5.889524
S1  -92.394  82.275877  4.344408
S2  -92.394  82.275877  7.43464
Mo  -93.96  81.371747  5.889524
S1  -93.96  84.988269  4.344408
S2  -93.96  84.988269  7.43464
Mo  -95.526  84.084138  5.889524
S1  -95.526  87.70066  4.344408
S2  -95.526  87.70066  7.43464
Mo  -97.092  86.79653  5.889524
S1  -97.092  90.413052  4.344408
S2  -97.092  90.413052  7.43464
Mo  -98.658  89.508921  5.889524
S1  -98.658  93.125443  4.344408
S2  -98.658  93.125443  7.43464
Mo  -100.224  92.221313  5.889524
S1  -100.224  95.837835  4.344408
S2  -100.224  95.837835  7.43464
Mo  -101.79  94.933704  5.889524
S1  -101.79  98.550226  4.344408
S2  -101.79  98.550226  7.43464
Mo  -103.356  97.646096  5.889524
S1  -103.356  101.262618  4.344408
S2  -103.356  101.262618  7.43464
Mo  -104.922  100.358487  5.889524
S1  -104.922  103.97501  4.344408
S2  -104.922  103.97501  7.43464
S1  -59.508  30.740438  4.344408
S2  -59.508  30.740438  7.43464
S1  -61.074  33.452829  4.344408
S2  -61.074  33.452829  7.43464
Mo  -62.64  32.548699  5.889524
S1  -62.64  36.165221  4.344408
S2  -62.64  36.165221  7.43464
Mo  -64.206  35.26109  5.889524
S1  -64.206  38.877612  4.344408
S2  -64.206  38.877612  7.43464
Mo  -65.772  37.973482  5.889524
S1  -65.772  41.590004  4.344408
S2  -65.772  41.590004  7.43464
Mo  -67.338  40.685873  5.889524
S1  -67.338  44.302395  4.344408
S2  -67.338  44.302395  7.43464
Mo  -68.904  43.398265  5.889524
S1  -68.904  47.014787  4.344408
S2  -68.904  47.014787  7.43464
Mo  -70.47  46.110656  5.889524
S1  -70.47  49.727178  4.344408
S2  -70.47  49.727178  7.43464
Mo  -72.036  48.823048  5.889524
S1  -72.036  52.43957  4.344408
S2  -72.036  52.43957  7.43464
Mo  -73.602  51.53544  5.889524
S1  -73.602  55.151962  4.344408
S2  -73.602  55.151962  7.43464
Mo  -75.168  54.247831  5.889524
S1  -75.168  57.864353  4.344408
S2  -75.168  57.864353  7.43464
Mo  -76.734  56.960223  5.889524
S1  -76.734  60.576745  4.344408
S2  -76.734  60.576745  7.43464
Mo  -78.3  59.672614  5.889524
S1  -78.3  63.289136  4.344408
S2  -78.3  63.289136  7.43464
Mo  -79.866  62.385006  5.889524
S1  -79.866  66.001528  4.344408
S2  -79.866  66.001528  7.43464
Mo  -81.432  65.097397  5.889524
S1  -81.432  68.713919  4.344408
S2  -81.432  68.713919  7.43464
Mo  -82.998  67.809789  5.889524
S1  -82.998  71.426311  4.344408
S2  -82.998  71.426311  7.43464
Mo  -84.564  70.52218  5.889524
S1  -84.564  74.138702  4.344408
S2  -84.564  74.138702  7.43464
Mo  -86.13  73.234572  5.889524
S1  -86.13  76.851094  4.344408
S2  -86.13  76.851094  7.43464
Mo  -87.696  75.946963  5.889524
S1  -87.696  79.563486  4.344408
S2  -87.696  79.563486  7.43464
Mo  -89.262  78.659355  5.889524
S1  -89.262  82.275877  4.344408
S2  -89.262  82.275877  7.43464
Mo  -90.828  81.371747  5.889524
S1  -90.828  84.988269  4.344408
S2  -90.828  84.988269  7.43464
Mo  -92.394  84.084138  5.889524
S1  -92.394  87.70066  4.344408
S2  -92.394  87.70066  7.43464
Mo  -93.96  86.79653  5.889524
S1  -93.96  90.413052  4.344408
S2  -93.96  90.413052  7.43464
Mo  -95.526  89.508921  5.889524
S1  -95.526  93.125443  4.344408
S2  -95.526  93.125443  7.43464
Mo  -97.092  92.221313  5.889524
S1  -97.092  95.837835  4.344408
S2  -97.092  95.837835  7.43464
Mo  -98.658  94.933704  5.889524
S1  -98.658  98.550226  4.344408
S2  -98.658  98.550226  7.43464
Mo  -100.224  97.646096  5.889524
S1  -100.224  101.262618  4.344408
S2  -100.224  101.262618  7.43464
Mo  -101.79  100.358487  5.889524
S1  -101.79  103.97501  4.344408
S2  -101.79  103.97501  7.43464
Mo  -103.356  103.070879  5.889524
S1  -103.356  106.687401  4.344408
S2  -103.356  106.687401  7.43464
Mo  -104.922  105.783271  5.889524
S1  -104.922  109.399793  4.344408
S2  -104.922  109.399793  7.43464
S1  -54.81  28.028046  4.344408
S2  -54.81  28.028046  7.43464
S1  -56.376  30.740438  4.344408
S2  -56.376  30.740438  7.43464
Mo  -57.942  29.836307  5.889524
S1  -57.942  33.452829  4.344408
S2  -57.942  33.452829  7.43464
Mo  -59.508  32.548699  5.889524
S1  -59.508  36.165221  4.344408
S2  -59.508  36.165221  7.43464
Mo  -61.074  35.26109  5.889524
S1  -61.074  38.877612  4.344408
S2  -61.074  38.877612  7.43464
Mo  -62.64  37.973482  5.889524
S1  -62.64  41.590004  4.344408
S2  -62.64  41.590004  7.43464
Mo  -64.206  40.685873  5.889524
S1  -64.206  44.302395  4.344408
S2  -64.206  44.302395  7.43464
Mo  -65.772  43.398265  5.889524
S1  -65.772  47.014787  4.344408
S2  -65.772  47.014787  7.43464
Mo  -67.338  46.110656  5.889524
S1  -67.338  49.727178  4.344408
S2  -67.338  49.727178  7.43464
Mo  -68.904  48.823048  5.889524
S1  -68.904  52.43957  4.344408
S2  -68.904  52.43957  7.43464
Mo  -70.47  51.53544  5.889524
S1  -70.47  55.151962  4.344408
S2  -70.47  55.151962  7.43464
Mo  -72.036  54.247831  5.889524
S1  -72.036  57.864353  4.344408
S2  -72.036  57.864353  7.43464
Mo  -73.602  56.960223  5.889524
S1  -73.602  60.576745  4.344408
S2  -73.602  60.576745  7.43464
Mo  -75.168  59.672614  5.889524
S1  -75.168  63.289136  4.344408
S2  -75.168  63.289136  7.43464
Mo  -76.734  62.385006  5.889524
S1  -76.734  66.001528  4.344408
S2  -76.734  66.001528  7.43464
Mo  -78.3  65.097397  5.889524
S1  -78.3  68.713919  4.344408
S2  -78.3  68.713919  7.43464
Mo  -79.866  67.809789  5.889524
S1  -79.866  71.426311  4.344408
S2  -79.866  71.426311  7.43464
Mo  -81.432  70.52218  5.889524
S1  -81.432  74.138702  4.344408
S2  -81.432  74.138702  7.43464
Mo  -82.998  73.234572  5.889524
S1  -82.998  76.851094  4.344408
S2  -82.998  76.851094  7.43464
Mo  -84.564  75.946963  5.889524
S1  -84.564  79.563486  4.344408
S2  -84.564  79.563486  7.43464
Mo  -86.13  78.659355  5.889524
S1  -86.13  82.275877  4.344408
S2  -86.13  82.275877  7.43464
Mo  -87.696  81.371747  5.889524
S1  -87.696  84.988269  4.344408
S2  -87.696  84.988269  7.43464
Mo  -89.262  84.084138  5.889524
S1  -89.262  87.70066  4.344408
S2  -89.262  87.70066  7.43464
Mo  -90.828  86.79653  5.889524
S1  -90.828  90.413052  4.344408
S2  -90.828  90.413052  7.43464
Mo  -92.394  89.508921  5.889524
S1  -92.394  93.125443  4.344408
S2  -92.394  93.125443  7.43464
Mo  -93.96  92.221313  5.889524
S1  -93.96  95.837835  4.344408
S2  -93.96  95.837835  7.43464
Mo  -95.526  94.933704  5.889524
S1  -95.526  98.550226  4.344408
S2  -95.526  98.550226  7.43464
Mo  -97.092  97.646096  5.889524
S1  -97.092  101.262618  4.344408
S2  -97.092  101.262618  7.43464
Mo  -98.658  100.358487  5.889524
S1  -98.658  103.97501  4.344408
S2  -98.658  103.97501  7.43464
Mo  -100.224  103.070879  5.889524
S1  -100.224  106.687401  4.344408
S2  -100.224  106.687401  7.43464
Mo  -101.79  105.783271  5.889524
S1  -101.79  109.399793  4.344408
S2  -101.79  109.399793  7.43464
Mo  -103.356  108.495662  5.889524
S1  -103.356  112.112184  4.344408
S2  -103.356  112.112184  7.43464
Mo  -104.922  111.208054  5.889524
S1  -104.922  114.824576  4.344408
S2  -104.922  114.824576  7.43464
S1  -50.112  25.315654  4.344408
S2  -50.112  25.315654  7.43464
S1  -51.678  28.028046  4.344408
S2  -51.678  28.028046  7.43464
Mo  -53.244  27.123916  5.889524
S1  -53.244  30.740438  4.344408
S2  -53.244  30.740438  7.43464
Mo  -54.81  29.836307  5.889524
S1  -54.81  33.452829  4.344408
S2  -54.81  33.452829  7.43464
Mo  -56.376  32.548699  5.889524
S1  -56.376  36.165221  4.344408
S2  -56.376  36.165221  7.43464
Mo  -57.942  35.26109  5.889524
S1  -57.942  38.877612  4.344408
S2  -57.942  38.877612  7.43464
Mo  -59.508  37.973482  5.889524
S1  -59.508  41.590004  4.344408
S2  -59.508  41.590004  7.43464
Mo  -61.074  40.685873  5.889524
S1  -61.074  44.302395  4.344408
S2  -61.074  44.302395  7.43464
Mo  -62.64  43.398265  5.889524
S1  -62.64  47.014787  4.344408
S2  -62.64  47.014787  7.43464
Mo  -64.206  46.110656  5.889524
S1  -64.206  49.727178  4.344408
S2  -64.206  49.727178  7.43464
Mo  -65.772  48.823048  5.889524
S1  -65.772  52.43957  4.344408
S2  -65.772  52.43957  7.43464
Mo  -67.338  51.53544  5.889524
S1  -67.338  55.151962  4.344408
S2  -67.338  55.151962  7.43464
Mo  -68.904  54.247831  5.889524
S1  -68.904  57.864353  4.344408
S2  -68.904  57.864353  7.43464
Mo  -70.47  56.960223  5.889524
S1  -70.47  60.576745  4.344408
S2  -70.47  60.576745  7.43464
Mo  -72.036  59.672614  5.889524
S1  -72.036  63.289136  4.344408
S2  -72.036  63.289136  7.43464
Mo  -73.602  62.385006  5.889524
S1  -73.602  66.001528  4.344408
S2  -73.602  66.001528  7.43464
Mo  -75.168  65.097397  5.889524
S1  -75.168  68.713919  4.344408
S2  -75.168  68.713919  7.43464
Mo  -76.734  67.809789  5.889524
S1  -76.734  71.426311  4.344408
S2  -76.734  71.426311  7.43464
Mo  -78.3  70.52218  5.889524
S1  -78.3  74.138702  4.344408
S2  -78.3  74.138702  7.43464
Mo  -79.866  73.234572  5.889524
S1  -79.866  76.851094  4.344408
S2  -79.866  76.851094  7.43464
Mo  -81.432  75.946963  5.889524
S1  -81.432  79.563486  4.344408
S2  -81.432  79.563486  7.43464
Mo  -82.998  78.659355  5.889524
S1  -82.998  82.275877  4.344408
S2  -82.998  82.275877  7.43464
Mo  -84.564  81.371747  5.889524
S1  -84.564  84.988269  4.344408
S2  -84.564  84.988269  7.43464
Mo  -86.13  84.084138  5.889524
S1  -86.13  87.70066  4.344408
S2  -86.13  87.70066  7.43464
Mo  -87.696  86.79653  5.889524
S1  -87.696  90.413052  4.344408
S2  -87.696  90.413052  7.43464
Mo  -89.262  89.508921  5.889524
S1  -89.262  93.125443  4.344408
S2  -89.262  93.125443  7.43464
Mo  -90.828  92.221313  5.889524
S1  -90.828  95.837835  4.344408
S2  -90.828  95.837835  7.43464
Mo  -92.394  94.933704  5.889524
S1  -92.394  98.550226  4.344408
S2  -92.394  98.550226  7.43464
Mo  -93.96  97.646096  5.889524
S1  -93.96  101.262618  4.344408
S2  -93.96  101.262618  7.43464
Mo  -95.526  100.358487  5.889524
S1  -95.526  103.97501  4.344408
S2  -95.526  103.97501  7.43464
Mo  -97.092  103.070879  5.889524
S1  -97.092  106.687401  4.344408
S2  -97.092  106.687401  7.43464
Mo  -98.658  105.783271  5.889524
S1  -98.658  109.399793  4.344408
S2  -98.658  109.399793  7.43464
Mo  -100.224  108.495662  5.889524
S1  -100.224  112.112184  4.344408
S2  -100.224  112.112184  7.43464
Mo  -101.79  111.208054  5.889524
S1  -101.79  114.824576  4.344408
S2  -101.79  114.824576  7.43464
Mo  -103.356  113.920445  5.889524
S1  -103.356  117.536967  4.344408
S2  -103.356  117.536967  7.43464
Mo  -104.922  116.632837  5.889524
S1  -104.922  120.249359  4.344408
S2  -104.922  120.249359  7.43464
S1  -45.414  22.603263  4.344408
S2  -45.414  22.603263  7.43464
S1  -46.98  25.315654  4.344408
S2  -46.98  25.315654  7.43464
Mo  -48.546  24.411524  5.889524
S1  -48.546  28.028046  4.344408
S2  -48.546  28.028046  7.43464
Mo  -50.112  27.123916  5.889524
S1  -50.112  30.740438  4.344408
S2  -50.112  30.740438  7.43464
Mo  -51.678  29.836307  5.889524
S1  -51.678  33.452829  4.344408
S2  -51.678  33.452829  7.43464
Mo  -53.244  32.548699  5.889524
S1  -53.244  36.165221  4.344408
S2  -53.244  36.165221  7.43464
Mo  -54.81  35.26109  5.889524
S1  -54.81  38.877612  4.344408
S2  -54.81  38.877612  7.43464
Mo  -56.376  37.973482  5.889524
S1  -56.376  41.590004  4.344408
S2  -56.376  41.590004  7.43464
Mo  -57.942  40.685873  5.889524
S1  -57.942  44.302395  4.344408
S2  -57.942  44.302395  7.43464
Mo  -59.508  43.398265  5.889524
S1  -59.508  47.014787  4.344408
S2  -59.508  47.014787  7.43464
Mo  -61.074  46.110656  5.889524
S1  -61.074  49.727178  4.344408
S2  -61.074  49.727178  7.43464
Mo  -62.64  48.823048  5.889524
S1  -62.64  52.43957  4.344408
S2  -62.64  52.43957  7.43464
Mo  -64.206  51.53544  5.889524
S1  -64.206  55.151962  4.344408
S2  -64.206  55.151962  7.43464
Mo  -65.772  54.247831  5.889524
S1  -65.772  57.864353  4.344408
S2  -65.772  57.864353  7.43464
Mo  -67.338  56.960223  5.889524
S1  -67.338  60.576745  4.344408
S2  -67.338  60.576745  7.43464
Mo  -68.904  59.672614  5.889524
S1  -68.904  63.289136  4.344408
S2  -68.904  63.289136  7.43464
Mo  -70.47  62.385006  5.889524
S1  -70.47  66.001528  4.344408
S2  -70.47  66.001528  7.43464
Mo  -72.036  65.097397  5.889524
S1  -72.036  68.713919  4.344408
S2  -72.036  68.713919  7.43464
Mo  -73.602  67.809789  5.889524
S1  -73.602  71.426311  4.344408
S2  -73.602  71.426311  7.43464
Mo  -75.168  70.52218  5.889524
S1  -75.168  74.138702  4.344408
S2  -75.168  74.138702  7.43464
Mo  -76.734  73.234572  5.889524
S1  -76.734  76.851094  4.344408
S2  -76.734  76.851094  7.43464
Mo  -78.3  75.946963  5.889524
S1  -78.3  79.563486  4.344408
S2  -78.3  79.563486  7.43464
Mo  -79.866  78.659355  5.889524
S1  -79.866  82.275877  4.344408
S2  -79.866  82.275877  7.43464
Mo  -81.432  81.371747  5.889524
S1  -81.432  84.988269  4.344408
S2  -81.432  84.988269  7.43464
Mo  -82.998  84.084138  5.889524
S1  -82.998  87.70066  4.344408
S2  -82.998  87.70066  7.43464
Mo  -84.564  86.79653  5.889524
S1  -84.564  90.413052  4.344408
S2  -84.564  90.413052  7.43464
Mo  -86.13  89.508921  5.889524
S1  -86.13  93.125443  4.344408
S2  -86.13  93.125443  7.43464
Mo  -87.696  92.221313  5.889524
S1  -87.696  95.837835  4.344408
S2  -87.696  95.837835  7.43464
Mo  -89.262  94.933704  5.889524
S1  -89.262  98.550226  4.344408
S2  -89.262  98.550226  7.43464
Mo  -90.828  97.646096  5.889524
S1  -90.828  101.262618  4.344408
S2  -90.828  101.262618  7.43464
Mo  -92.394  100.358487  5.889524
S1  -92.394  103.97501  4.344408
S2  -92.394  103.97501  7.43464
Mo  -93.96  103.070879  5.889524
S1  -93.96  106.687401  4.344408
S2  -93.96  106.687401  7.43464
Mo  -95.526  105.783271  5.889524
S1  -95.526  109.399793  4.344408
S2  -95.526  109.399793  7.43464
Mo  -97.092  108.495662  5.889524
S1  -97.092  112.112184  4.344408
S2  -97.092  112.112184  7.43464
Mo  -98.658  111.208054  5.889524
S1  -98.658  114.824576  4.344408
S2  -98.658  114.824576  7.43464
Mo  -100.224  113.920445  5.889524
S1  -100.224  117.536967  4.344408
S2  -100.224  117.536967  7.43464
Mo  -101.79  116.632837  5.889524
S1  -101.79  120.249359  4.344408
S2  -101.79  120.249359  7.43464
Mo  -103.356  119.345228  5.889524
S1  -103.356  122.96175  4.344408
S2  -103.356  122.96175  7.43464
Mo  -104.922  122.05762  5.889524
S1  -104.922  125.674142  4.344408
S2  -104.922  125.674142  7.43464
S1  -40.716  19.890871  4.344408
S2  -40.716  19.890871  7.43464
S1  -42.282  22.603263  4.344408
S2  -42.282  22.603263  7.43464
Mo  -43.848  21.699132  5.889524
S1  -43.848  25.315654  4.344408
S2  -43.848  25.315654  7.43464
Mo  -45.414  24.411524  5.889524
S1  -45.414  28.028046  4.344408
S2  -45.414  28.028046  7.43464
Mo  -46.98  27.123916  5.889524
S1  -46.98  30.740438  4.344408
S2  -46.98  30.740438  7.43464
Mo  -48.546  29.836307  5.889524
S1  -48.546  33.452829  4.344408
S2  -48.546  33.452829  7.43464
Mo  -50.112  32.548699  5.889524
S1  -50.112  36.165221  4.344408
S2  -50.112  36.165221  7.43464
Mo  -51.678  35.26109  5.889524
S1  -51.678  38.877612  4.344408
S2  -51.678  38.877612  7.43464
Mo  -53.244  37.973482  5.889524
S1  -53.244  41.590004  4.344408
S2  -53.244  41.590004  7.43464
Mo  -54.81  40.685873  5.889524
S1  -54.81  44.302395  4.344408
S2  -54.81  44.302395  7.43464
Mo  -56.376  43.398265  5.889524
S1  -56.376  47.014787  4.344408
S2  -56.376  47.014787  7.43464
Mo  -57.942  46.110656  5.889524
S1  -57.942  49.727178  4.344408
S2  -57.942  49.727178  7.43464
Mo  -59.508  48.823048  5.889524
S1  -59.508  52.43957  4.344408
S2  -59.508  52.43957  7.43464
Mo  -61.074  51.53544  5.889524
S1  -61.074  55.151962  4.344408
S2  -61.074  55.151962  7.43464
Mo  -62.64  54.247831  5.889524
S1  -62.64  57.864353  4.344408
S2  -62.64  57.864353  7.43464
Mo  -64.206  56.960223  5.889524
S1  -64.206  60.576745  4.344408
S2  -64.206  60.576745  7.43464
Mo  -65.772  59.672614  5.889524
S1  -65.772  63.289136  4.344408
S2  -65.772  63.289136  7.43464
Mo  -67.338  62.385006  5.889524
S1  -67.338  66.001528  4.344408
S2  -67.338  66.001528  7.43464
Mo  -68.904  65.097397  5.889524
S1  -68.904  68.713919  4.344408
S2  -68.904  68.713919  7.43464
Mo  -70.47  67.809789  5.889524
S1  -70.47  71.426311  4.344408
S2  -70.47  71.426311  7.43464
Mo  -72.036  70.52218  5.889524
S1  -72.036  74.138702  4.344408
S2  -72.036  74.138702  7.43464
Mo  -73.602  73.234572  5.889524
S1  -73.602  76.851094  4.344408
S2  -73.602  76.851094  7.43464
Mo  -75.168  75.946963  5.889524
S1  -75.168  79.563486  4.344408
S2  -75.168  79.563486  7.43464
Mo  -76.734  78.659355  5.889524
S1  -76.734  82.275877  4.344408
S2  -76.734  82.275877  7.43464
Mo  -78.3  81.371747  5.889524
S1  -78.3  84.988269  4.344408
S2  -78.3  84.988269  7.43464
Mo  -79.866  84.084138  5.889524
S1  -79.866  87.70066  4.344408
S2  -79.866  87.70066  7.43464
Mo  -81.432  86.79653  5.889524
S1  -81.432  90.413052  4.344408
S2  -81.432  90.413052  7.43464
Mo  -82.998  89.508921  5.889524
S1  -82.998  93.125443  4.344408
S2  -82.998  93.125443  7.43464
Mo  -84.564  92.221313  5.889524
S1  -84.564  95.837835  4.344408
S2  -84.564  95.837835  7.43464
Mo  -86.13  94.933704  5.889524
S1  -86.13  98.550226  4.344408
S2  -86.13  98.550226  7.43464
Mo  -87.696  97.646096  5.889524
S1  -87.696  101.262618  4.344408
S2  -87.696  101.262618  7.43464
Mo  -89.262  100.358487  5.889524
S1  -89.262  103.97501  4.344408
S2  -89.262  103.97501  7.43464
Mo  -90.828  103.070879  5.889524
S1  -90.828  106.687401  4.344408
S2  -90.828  106.687401  7.43464
Mo  -92.394  105.783271  5.889524
S1  -92.394  109.399793  4.344408
S2  -92.394  109.399793  7.43464
Mo  -93.96  108.495662  5.889524
S1  -93.96  112.112184  4.344408
S2  -93.96  112.112184  7.43464
Mo  -95.526  111.208054  5.889524
S1  -95.526  114.824576  4.344408
S2  -95.526  114.824576  7.43464
Mo  -97.092  113.920445  5.889524
S1  -97.092  117.536967  4.344408
S2  -97.092  117.536967  7.43464
Mo  -98.658  116.632837  5.889524
S1  -98.658  120.249359  4.344408
S2  -98.658  120.249359  7.43464
Mo  -100.224  119.345228  5.889524
S1  -100.224  122.96175  4.344408
S2  -100.224  122.96175  7.43464
Mo  -101.79  122.05762  5.889524
S1  -101.79  125.674142  4.344408
S2  -101.79  125.674142  7.43464
Mo  -103.356  124.770011  5.889524
S1  -103.356  128.386533  4.344408
S2  -103.356  128.386533  7.43464
Mo  -104.922  127.482403  5.889524
S1  -104.922  131.098925  4.344408
S2  -104.922  131.098925  7.43464
S1  -36.018  17.17848  4.344408
S2  -36.018  17.17848  7.43464
S1  -37.584  19.890871  4.344408
S2  -37.584  19.890871  7.43464
Mo  -39.15  18.986741  5.889524
S1  -39.15  22.603263  4.344408