&CONTROL
  calculation  = "scf"
  prefix       = "lego"
  pseudo_dir   = "."
  outdir       = "."
  verbosity="high"
/
&SYSTEM
  ibrav     = 0
  celldm(1) = 5.888386
  nat       = 222
  ntyp      = 1
  vdw_corr = "grimme-d2"
  ecutwfc   = 60
  ecutrho = 600
/
&ELECTRONS
  conv_thr    = 1.D-8
  mixing_beta = 0.3D0
/
&IONS
 ion_dynamics="bfgs"
/

CELL_PARAMETERS {alat}
-0.5	6.0621778	0.0
-5.5	2.5980762	0.0
0.0	0.0	10.0

ATOMIC_SPECIES
xxxxxxx
xxxxxxx
xxxxxx

ATOMIC_POSITIONS {Angstrom}
S1  -17.138  6.29658200467  4.34440811
S2  -17.138  6.29658200467  7.43463952
S1  -18.696  8.99511715107  4.34440811
S2  -18.696  8.99511715107  7.43463952
S1  -12.464  3.59804685827  4.34440811
S2  -12.464  3.59804685827  7.43463952
S1  -14.022  6.29658200467  4.34440811
S2  -14.022  6.29658200467  7.43463952
Mo  -15.58  5.3970702928  5.889523815
S1  -15.58  8.99511715107  4.34440811
S2  -15.58  8.99511715107  7.43463952
Mo  -17.138  8.0956054392  5.889523815
S1  -17.138  11.6936522975  4.34440811
S2  -17.138  11.6936522975  7.43463952
Mo  -18.696  10.7941405856  5.889523815
S1  -18.696  14.3921874439  4.34440811
S2  -18.696  14.3921874439  7.43463952
Mo  -20.254  13.492675732  5.889523815
S1  -20.254  17.0907225903  4.34440811
S2  -20.254  17.0907225903  7.43463952
S1  -7.79  0.89951171187  4.34440811
S2  -7.79  0.89951171187  7.43463952
S1  -9.348  3.59804685827  4.34440811
S2  -9.348  3.59804685827  7.43463952
Mo  -10.906  2.6985351464  5.889523815
S1  -10.906  6.29658200467  4.34440811
S2  -10.906  6.29658200467  7.43463952
Mo  -12.464  5.3970702928  5.889523815
S1  -12.464  8.99511715107  4.34440811
S2  -12.464  8.99511715107  7.43463952
Mo  -14.022  8.0956054392  5.889523815
S1  -14.022  11.6936522975  4.34440811
S2  -14.022  11.6936522975  7.43463952
Mo  -15.58  10.7941405856  5.889523815
S1  -15.58  14.3921874439  4.34440811
S2  -15.58  14.3921874439  7.43463952
Mo  -17.138  13.492675732  5.889523815
S1  -17.138  17.0907225903  4.34440811
S2  -17.138  17.0907225903  7.43463952
Mo  -18.696  16.1912108784  5.889523815
S1  -18.696  19.7892577367  4.34440811
S2  -18.696  19.7892577367  7.43463952
Mo  -20.254  18.8897460248  5.889523815
S1  -20.254  22.4877928831  4.34440811
S2  -20.254  22.4877928831  7.43463952
S1  -4.674  0.89951171187  4.34440811
S2  -4.674  0.89951171187  7.43463952
Mo  -6.232  0.0  5.889523815
S1  -6.232  3.59804685827  4.34440811
S2  -6.232  3.59804685827  7.43463952
Mo  -7.79  2.6985351464  5.889523815
S1  -7.79  6.29658200467  4.34440811
S2  -7.79  6.29658200467  7.43463952
Mo  -9.348  5.3970702928  5.889523815
S1  -9.348  8.99511715107  4.34440811
S2  -9.348  8.99511715107  7.43463952
Mo  -10.906  8.0956054392  5.889523815
S1  -10.906  11.6936522975  4.34440811
S2  -10.906  11.6936522975  7.43463952
Mo  -12.464  10.7941405856  5.889523815
S1  -12.464  14.3921874439  4.34440811
S2  -12.464  14.3921874439  7.43463952
Mo  -14.022  13.492675732  5.889523815
S1  -14.022  17.0907225903  4.34440811
S2  -14.022  17.0907225903  7.43463952
Mo  -15.58  16.1912108784  5.889523815
S1  -15.58  19.7892577367  4.34440811
S2  -15.58  19.7892577367  7.43463952
Mo  -17.138  18.8897460248  5.889523815
S1  -17.138  22.4877928831  4.34440811
S2  -17.138  22.4877928831  7.43463952
Mo  -18.696  21.5882811712  5.889523815
Mo  -20.254  24.2868163176  5.889523815
Mo  -3.116  0.0  5.889523815
S1  -3.116  3.59804685827  4.34440811
S2  -3.116  3.59804685827  7.43463952
Mo  -4.674  2.6985351464  5.889523815
S1  -4.674  6.29658200467  4.34440811
S2  -4.674  6.29658200467  7.43463952
Mo  -6.232  5.3970702928  5.889523815
S1  -6.232  8.99511715107  4.34440811
S2  -6.232  8.99511715107  7.43463952
Mo  -7.79  8.0956054392  5.889523815
S1  -7.79  11.6936522975  4.34440811
S2  -7.79  11.6936522975  7.43463952
Mo  -9.348  10.7941405856  5.889523815
S1  -9.348  14.3921874439  4.34440811
S2  -9.348  14.3921874439  7.43463952
Mo  -10.906  13.492675732  5.889523815
S1  -10.906  17.0907225903  4.34440811
S2  -10.906  17.0907225903  7.43463952
Mo  -12.464  16.1912108784  5.889523815
S1  -12.464  19.7892577367  4.34440811
S2  -12.464  19.7892577367  7.43463952
Mo  -14.022  18.8897460248  5.889523815
Mo  -15.58  21.5882811712  5.889523815
Mo  -4.674  8.0956054392  5.889523815
S1  -4.674  11.6936522975  4.34440811
S2  -4.674  11.6936522975  7.43463952
Mo  -6.232  10.7941405856  5.889523815
S1  -6.232  14.3921874439  4.34440811
S2  -6.232  14.3921874439  7.43463952
Mo  -7.79  13.492675732  5.889523815
S1  -7.79  17.0907225903  4.34440811
S2  -7.79  17.0907225903  7.43463952
Mo  -9.348  16.1912108784  5.889523815
Mo  -10.906  18.8897460248  5.889523815
Mo  -4.674  13.492675732  5.889523815
S1  -4.674  17.0907225903  4.34440811
S2  -4.674  17.0907225903  7.43463952
Mo  -6.232  16.1912108784  5.889523815
S1  -16.8432432363  6.3208931207  10.24440811
S2  -16.8432432363  6.3208931207  13.33463952
S1  -18.8223243155  8.72769473661  10.24440811
S2  -18.8223243155  8.72769473661  13.33463952
S1  -9.81118918606  2.01782356752  10.24440811
S2  -9.81118918606  2.01782356752  13.33463952
S1  -11.7902702652  4.42462518343  10.24440811
S2  -11.7902702652  4.42462518343  13.33463952
Mo  -13.179837834  3.28200219592  11.789523815
S1  -13.7693513444  6.83142679934  10.24440811
S2  -13.7693513444  6.83142679934  13.33463952
Mo  -15.1589189132  5.68880381183  11.789523815
S1  -15.7484324236  9.23822841524  10.24440811
S2  -15.7484324236  9.23822841524  13.33463952
Mo  -17.1379999924  8.09560542773  11.789523815
S1  -17.7275135028  11.6450300312  10.24440811
S2  -17.7275135028  11.6450300312  13.33463952
Mo  -19.1170810716  10.5024070436  11.789523815
S1  -19.706594582  14.0518316471  10.24440811
S2  -19.706594582  14.0518316471  13.33463952
S1  -4.75821621498  0.12155563024  10.24440811
S2  -4.75821621498  0.12155563024  13.33463952
S1  -6.73729729418  2.52835724615  10.24440811
S2  -6.73729729418  2.52835724615  13.33463952
Mo  -8.12686486296  1.38573425864  11.789523815
S1  -8.71637837337  4.93515886206  10.24440811
S2  -8.71637837337  4.93515886206  13.33463952
Mo  -10.1059459422  3.79253587455  11.789523815
S1  -10.6954594526  7.34196047797  10.24440811
S2  -10.6954594526  7.34196047797  13.33463952
Mo  -12.0850270213  6.19933749046  11.789523815
S1  -12.6745405318  9.74876209388  10.24440811
S2  -12.6745405318  9.74876209388  13.33463952
Mo  -14.0641081005  8.60613910637  11.789523815
S1  -14.6536216109  12.1555637098  10.24440811
S2  -14.6536216109  12.1555637098  13.33463952
Mo  -16.0431891797  11.0129407223  11.789523815
S1  -16.6327026901  14.5623653257  10.24440811
S2  -16.6327026901  14.5623653257  13.33463952
Mo  -18.0222702589  13.4197423382  11.789523815
S1  -18.6117837693  16.9691669416  10.24440811
S2  -18.6117837693  16.9691669416  13.33463952
Mo  -20.0013513381  15.8265439541  11.789523815
S1  -20.5908648485  19.3759685575  10.24440811
S2  -20.5908648485  19.3759685575  13.33463952
Mo  -3.07389189188  -0.51053367863  11.789523815
S1  -3.66340540229  3.03889092478  10.24440811
S2  -3.66340540229  3.03889092478  13.33463952
Mo  -5.05297297108  1.89626793728  11.789523815
S1  -5.64248648149  5.44569254069  10.24440811
S2  -5.64248648149  5.44569254069  13.33463952
Mo  -7.03205405027  4.30306955318  11.789523815
S1  -7.62156756068  7.8524941566  10.24440811
S2  -7.62156756068  7.8524941566  13.33463952
Mo  -9.01113512946  6.70987116909  11.789523815
S1  -9.60064863987  10.2592957725  10.24440811
S2  -9.60064863987  10.2592957725  13.33463952
Mo  -10.9902162087  9.116672785  11.789523815
S1  -11.5797297191  12.6660973884  10.24440811
S2  -11.5797297191  12.6660973884  13.33463952
Mo  -12.9692972879  11.5234744009  11.789523815
S1  -13.5588107983  15.0728990043  10.24440811
S2  -13.5588107983  15.0728990043  13.33463952
Mo  -14.948378367  13.9302760168  11.789523815
S1  -15.5378918775  17.4797006202  10.24440811
S2  -15.5378918775  17.4797006202  13.33463952
Mo  -16.9274594462  16.3370776327  11.789523815
S1  -17.5169729566  19.8865022361  10.24440811
S2  -17.5169729566  19.8865022361  13.33463952
Mo  -18.9065405254  18.7438792486  11.789523815
S1  -19.4960540358  22.293303852  10.24440811
S2  -19.4960540358  22.293303852  13.33463952
Mo  -20.8856216046  21.1506808645  11.789523815
Mo  -3.95816215839  4.81360323182  11.789523815
S1  -4.5476756688  8.36302783523  10.24440811
S2  -4.5476756688  8.36302783523  13.33463952
Mo  -5.93724323758  7.22040484772  11.789523815
S1  -6.52675674799  10.7698294511  10.24440811
S2  -6.52675674799  10.7698294511  13.33463952
Mo  -7.91632431677  9.62720646363  11.789523815
S1  -8.50583782718  13.176631067  10.24440811
S2  -8.50583782718  13.176631067  13.33463952
Mo  -9.89540539596  12.0340080795  11.789523815
S1  -10.4849189064  15.583432683  10.24440811
S2  -10.4849189064  15.583432683  13.33463952
Mo  -11.8744864752  14.4408096954  11.789523815
S1  -12.4639999856  17.9902342989  10.24440811
S2  -12.4639999856  17.9902342989  13.33463952
Mo  -13.8535675544  16.8476113114  11.789523815
S1  -14.4430810648  20.3970359148  10.24440811
S2  -14.4430810648  20.3970359148  13.33463952
Mo  -15.8326486335  19.2544129273  11.789523815
S1  -16.422162144  22.8038375307  10.24440811
S2  -16.422162144  22.8038375307  13.33463952
Mo  -17.8117297127  21.6612145432  11.789523815
Mo  -19.7908107919  24.0680161591  11.789523815
Mo  -4.84243242489  10.1377401423  11.789523815
S1  -5.4319459353  13.6871647457  10.24440811
S2  -5.4319459353  13.6871647457  13.33463952
Mo  -6.82151350408  12.5445417582  11.789523815
S1  -7.41102701449  16.0939663616  10.24440811
S2  -7.41102701449  16.0939663616  13.33463952
Mo  -8.80059458327  14.9513433741  11.789523815
S1  -9.39010809368  18.5007679775  10.24440811
S2  -9.39010809368  18.5007679775  13.33463952
Mo  -10.7796756625  17.35814499  11.789523815
Mo  -12.7587567417  19.7649466059  11.789523815
S1  -4.33713512261  16.6045000402  10.24440811
S2  -4.33713512261  16.6045000402  13.33463952
Mo  -5.72670269139  15.4618770527  11.789523815
Mo  -7.70578377058  17.8686786686  11.789523815

K_POINTS {GAMMA}