&CONTROL
  calculation  = "scf"
  prefix       = "lego"
  pseudo_dir   = "."
  outdir       = "."
  verbosity="high"
/
&SYSTEM
  ibrav     = 0
  celldm(1) = 5.888386
  nat       = 366
  ntyp      = 1
  vdw_corr = "grimme-d2"
  ecutwfc   = 60
  ecutrho = 600
/
&ELECTRONS
  conv_thr    = 1.D-8
  mixing_beta = 0.3D0
/
&IONS
 ion_dynamics="bfgs"
/

CELL_PARAMETERS {alat}
-0.5	7.7942286	0.0
-7.0	3.4641016	0.0
0.0	0.0	10.0

ATOMIC_SPECIES
xxxxxxx
xxxxxxx
xxxxxx

ATOMIC_POSITIONS {Angstrom}
S1  -21.812  8.99511715107  4.34440811
S2  -21.812  8.99511715107  7.43463952
S1  -23.37  11.6936522975  4.34440811
S2  -23.37  11.6936522975  7.43463952
S1  -17.138  6.29658200467  4.34440811
S2  -17.138  6.29658200467  7.43463952
S1  -18.696  8.99511715107  4.34440811
S2  -18.696  8.99511715107  7.43463952
Mo  -20.254  8.0956054392  5.889523815
S1  -20.254  11.6936522975  4.34440811
S2  -20.254  11.6936522975  7.43463952
Mo  -21.812  10.7941405856  5.889523815
S1  -21.812  14.3921874439  4.34440811
S2  -21.812  14.3921874439  7.43463952
Mo  -23.37  13.492675732  5.889523815
S1  -23.37  17.0907225903  4.34440811
S2  -23.37  17.0907225903  7.43463952
S1  -24.928  19.7892577367  4.34440811
S2  -24.928  19.7892577367  7.43463952
S1  -12.464  3.59804685827  4.34440811
S2  -12.464  3.59804685827  7.43463952
S1  -14.022  6.29658200467  4.34440811
S2  -14.022  6.29658200467  7.43463952
Mo  -15.58  5.3970702928  5.889523815
S1  -15.58  8.99511715107  4.34440811
S2  -15.58  8.99511715107  7.43463952
Mo  -17.138  8.0956054392  5.889523815
S1  -17.138  11.6936522975  4.34440811
S2  -17.138  11.6936522975  7.43463952
Mo  -18.696  10.7941405856  5.889523815
S1  -18.696  14.3921874439  4.34440811
S2  -18.696  14.3921874439  7.43463952
Mo  -20.254  13.492675732  5.889523815
S1  -20.254  17.0907225903  4.34440811
S2  -20.254  17.0907225903  7.43463952
Mo  -21.812  16.1912108784  5.889523815
S1  -21.812  19.7892577367  4.34440811
S2  -21.812  19.7892577367  7.43463952
Mo  -23.37  18.8897460248  5.889523815
S1  -23.37  22.4877928831  4.34440811
S2  -23.37  22.4877928831  7.43463952
Mo  -24.928  21.5882811712  5.889523815
S1  -24.928  25.1863280295  4.34440811
S2  -24.928  25.1863280295  7.43463952
S1  -7.79  0.89951171187  4.34440811
S2  -7.79  0.89951171187  7.43463952
S1  -9.348  3.59804685827  4.34440811
S2  -9.348  3.59804685827  7.43463952
Mo  -10.906  2.6985351464  5.889523815
S1  -10.906  6.29658200467  4.34440811
S2  -10.906  6.29658200467  7.43463952
Mo  -12.464  5.3970702928  5.889523815
S1  -12.464  8.99511715107  4.34440811
S2  -12.464  8.99511715107  7.43463952
Mo  -14.022  8.0956054392  5.889523815
S1  -14.022  11.6936522975  4.34440811
S2  -14.022  11.6936522975  7.43463952
Mo  -15.58  10.7941405856  5.889523815
S1  -15.58  14.3921874439  4.34440811
S2  -15.58  14.3921874439  7.43463952
Mo  -17.138  13.492675732  5.889523815
S1  -17.138  17.0907225903  4.34440811
S2  -17.138  17.0907225903  7.43463952
Mo  -18.696  16.1912108784  5.889523815
S1  -18.696  19.7892577367  4.34440811
S2  -18.696  19.7892577367  7.43463952
Mo  -20.254  18.8897460248  5.889523815
S1  -20.254  22.4877928831  4.34440811
S2  -20.254  22.4877928831  7.43463952
Mo  -21.812  21.5882811712  5.889523815
S1  -21.812  25.1863280295  4.34440811
S2  -21.812  25.1863280295  7.43463952
Mo  -23.37  24.2868163176  5.889523815
S1  -23.37  27.8848631759  4.34440811
S2  -23.37  27.8848631759  7.43463952
Mo  -24.928  26.985351464  5.889523815
S1  -24.928  30.5833983223  4.34440811
S2  -24.928  30.5833983223  7.43463952
S1  -4.674  0.89951171187  4.34440811
S2  -4.674  0.89951171187  7.43463952
S1  -6.232  3.59804685827  4.34440811
S2  -6.232  3.59804685827  7.43463952
Mo  -7.79  2.6985351464  5.889523815
S1  -7.79  6.29658200467  4.34440811
S2  -7.79  6.29658200467  7.43463952
Mo  -9.348  5.3970702928  5.889523815
S1  -9.348  8.99511715107  4.34440811
S2  -9.348  8.99511715107  7.43463952
Mo  -10.906  8.0956054392  5.889523815
S1  -10.906  11.6936522975  4.34440811
S2  -10.906  11.6936522975  7.43463952
Mo  -12.464  10.7941405856  5.889523815
S1  -12.464  14.3921874439  4.34440811
S2  -12.464  14.3921874439  7.43463952
Mo  -14.022  13.492675732  5.889523815
S1  -14.022  17.0907225903  4.34440811
S2  -14.022  17.0907225903  7.43463952
Mo  -15.58  16.1912108784  5.889523815
S1  -15.58  19.7892577367  4.34440811
S2  -15.58  19.7892577367  7.43463952
Mo  -17.138  18.8897460248  5.889523815
S1  -17.138  22.4877928831  4.34440811
S2  -17.138  22.4877928831  7.43463952
Mo  -18.696  21.5882811712  5.889523815
S1  -18.696  25.1863280295  4.34440811
S2  -18.696  25.1863280295  7.43463952
Mo  -20.254  24.2868163176  5.889523815
S1  -20.254  27.8848631759  4.34440811
S2  -20.254  27.8848631759  7.43463952
Mo  -21.812  26.985351464  5.889523815
S1  -21.812  30.5833983223  4.34440811
S2  -21.812  30.5833983223  7.43463952
Mo  -23.37  29.6838866104  5.889523815
Mo  -24.928  32.3824217568  5.889523815
Mo  -3.116  0.0  5.889523815
S1  -3.116  3.59804685827  4.34440811
S2  -3.116  3.59804685827  7.43463952
Mo  -4.674  2.6985351464  5.889523815
S1  -4.674  6.29658200467  4.34440811
S2  -4.674  6.29658200467  7.43463952
Mo  -6.232  5.3970702928  5.889523815
S1  -6.232  8.99511715107  4.34440811
S2  -6.232  8.99511715107  7.43463952
Mo  -7.79  8.0956054392  5.889523815
S1  -7.79  11.6936522975  4.34440811
S2  -7.79  11.6936522975  7.43463952
Mo  -9.348  10.7941405856  5.889523815
S1  -9.348  14.3921874439  4.34440811
S2  -9.348  14.3921874439  7.43463952
Mo  -10.906  13.492675732  5.889523815
S1  -10.906  17.0907225903  4.34440811
S2  -10.906  17.0907225903  7.43463952
Mo  -12.464  16.1912108784  5.889523815
S1  -12.464  19.7892577367  4.34440811
S2  -12.464  19.7892577367  7.43463952
Mo  -14.022  18.8897460248  5.889523815
S1  -14.022  22.4877928831  4.34440811
S2  -14.022  22.4877928831  7.43463952
Mo  -15.58  21.5882811712  5.889523815
S1  -15.58  25.1863280295  4.34440811
S2  -15.58  25.1863280295  7.43463952
Mo  -17.138  24.2868163176  5.889523815
S1  -17.138  27.8848631759  4.34440811
S2  -17.138  27.8848631759  7.43463952
Mo  -18.696  26.985351464  5.889523815
Mo  -20.254  29.6838866104  5.889523815
Mo  -3.116  5.3970702928  5.889523815
Mo  -4.674  8.0956054392  5.889523815
S1  -4.674  11.6936522975  4.34440811
S2  -4.674  11.6936522975  7.43463952
Mo  -6.232  10.7941405856  5.889523815
S1  -6.232  14.3921874439  4.34440811
S2  -6.232  14.3921874439  7.43463952
Mo  -7.79  13.492675732  5.889523815
S1  -7.79  17.0907225903  4.34440811
S2  -7.79  17.0907225903  7.43463952
Mo  -9.348  16.1912108784  5.889523815
S1  -9.348  19.7892577367  4.34440811
S2  -9.348  19.7892577367  7.43463952
Mo  -10.906  18.8897460248  5.889523815
S1  -10.906  22.4877928831  4.34440811
S2  -10.906  22.4877928831  7.43463952
Mo  -12.464  21.5882811712  5.889523815
S1  -12.464  25.1863280295  4.34440811
S2  -12.464  25.1863280295  7.43463952
Mo  -14.022  24.2868163176  5.889523815
Mo  -15.58  26.985351464  5.889523815
Mo  -4.674  13.492675732  5.889523815
S1  -4.674  17.0907225903  4.34440811
S2  -4.674  17.0907225903  7.43463952
Mo  -6.232  16.1912108784  5.889523815
S1  -6.232  19.7892577367  4.34440811
S2  -6.232  19.7892577367  7.43463952
Mo  -7.79  18.8897460248  5.889523815
S1  -7.79  22.4877928831  4.34440811
S2  -7.79  22.4877928831  7.43463952
Mo  -9.348  21.5882811712  5.889523815
Mo  -10.906  24.2868163176  5.889523815
Mo  -4.674  18.8897460248  5.889523815
S1  -4.674  22.4877928831  4.34440811
S2  -4.674  22.4877928831  7.43463952
Mo  -6.232  21.5882811712  5.889523815
Mo  -7.79  24.2868163176  5.889523815
S1  -21.5821311405  9.00986323362  10.24440811
S2  -21.5821311405  9.00986323362  13.33463952
S1  -23.4721639259  11.4872069737  10.24440811
S2  -23.4721639259  11.4872069737  13.33463952
S1  -14.7116065534  4.45332028494  10.24440811
S2  -14.7116065534  4.45332028494  13.33463952
S1  -16.6016393387  6.93066402504  10.24440811
S2  -16.6016393387  6.93066402504  13.33463952
S1  -18.4916721241  9.40800776513  10.24440811
S2  -18.4916721241  9.40800776513  13.33463952
Mo  -19.921967207  8.31679683433  11.789523815
S1  -20.3817049095  11.8853515052  10.24440811
S2  -20.3817049095  11.8853515052  13.33463952
Mo  -21.8119999924  10.7941405744  11.789523815
S1  -22.2717376948  14.3626952453  10.24440811
S2  -22.2717376948  14.3626952453  13.33463952
Mo  -23.7020327778  13.2714843145  11.789523815
S1  -24.1617704802  16.8400389854  10.24440811
S2  -24.1617704802  16.8400389854  13.33463952
S1  -9.73111475162  2.37412107636  10.24440811
S2  -9.73111475162  2.37412107636  13.33463952
S1  -11.621147537  4.85146481645  10.24440811
S2  -11.621147537  4.85146481645  13.33463952
Mo  -13.0514426199  3.76025388564  11.789523815
S1  -13.5111803223  7.32880855655  10.24440811
S2  -13.5111803223  7.32880855655  13.33463952
Mo  -14.9414754053  6.23759762574  11.789523815
S1  -15.4012131077  9.80615229665  10.24440811
S2  -15.4012131077  9.80615229665  13.33463952
Mo  -16.8315081906  8.71494136584  11.789523815
S1  -17.2912458931  12.2834960367  10.24440811
S2  -17.2912458931  12.2834960367  13.33463952
Mo  -18.721540976  11.1922851059  11.789523815
S1  -19.1812786784  14.7608397769  10.24440811
S2  -19.1812786784  14.7608397769  13.33463952
Mo  -20.6115737614  13.669628846  11.789523815
S1  -21.0713114638  17.2381835169  10.24440811
S2  -21.0713114638  17.2381835169  13.33463952
Mo  -22.5016065467  16.1469725861  11.789523815
S1  -22.9613442492  19.715527257  10.24440811
S2  -22.9613442492  19.715527257  13.33463952
Mo  -24.3916393321  18.6243163262  11.789523815
S1  -24.8513770345  22.1928709971  10.24440811
S2  -24.8513770345  22.1928709971  13.33463952
S1  -4.75062294986  0.29492186777  10.24440811
S2  -4.75062294986  0.29492186777  13.33463952
S1  -6.64065573522  2.77226560787  10.24440811
S2  -6.64065573522  2.77226560787  13.33463952
Mo  -8.07095081816  1.68105467706  11.789523815
S1  -8.53068852058  5.24960934797  10.24440811
S2  -8.53068852058  5.24960934797  13.33463952
Mo  -9.96098360352  4.15839841716  11.789523815
S1  -10.4207213059  7.72695308807  10.24440811
S2  -10.4207213059  7.72695308807  13.33463952
Mo  -11.8510163889  6.63574215726  11.789523815
S1  -12.3107540913  10.2042968282  10.24440811
S2  -12.3107540913  10.2042968282  13.33463952
Mo  -13.7410491742  9.11308589736  11.789523815
S1  -14.2007868767  12.6816405683  10.24440811
S2  -14.2007868767  12.6816405683  13.33463952
Mo  -15.6310819596  11.5904296375  11.789523815
S1  -16.090819662  15.1589843084  10.24440811
S2  -16.090819662  15.1589843084  13.33463952
Mo  -17.521114745  14.0677733776  11.789523815
S1  -17.9808524474  17.6363280485  10.24440811
S2  -17.9808524474  17.6363280485  13.33463952
Mo  -19.4111475303  16.5451171177  11.789523815
S1  -19.8708852328  20.1136717886  10.24440811
S2  -19.8708852328  20.1136717886  13.33463952
Mo  -21.3011803157  19.0224608578  11.789523815
S1  -21.7609180181  22.5910155287  10.24440811
S2  -21.7609180181  22.5910155287  13.33463952
Mo  -23.1912131011  21.4998045979  11.789523815
S1  -23.6509508035  25.0683592688  10.24440811
S2  -23.6509508035  25.0683592688  13.33463952
Mo  -25.0812458864  23.9771483379  11.789523815
S1  -25.5409835889  27.5457030089  10.24440811
S2  -25.5409835889  27.5457030089  13.33463952
Mo  -3.0904590164  -0.39814453152  11.789523815
S1  -3.55019671882  3.17041013939  10.24440811
S2  -3.55019671882  3.17041013939  13.33463952
Mo  -4.98049180176  2.07919920858  11.789523815
S1  -5.44022950419  5.64775387949  10.24440811
S2  -5.44022950419  5.64775387949  13.33463952
Mo  -6.87052458712  4.55654294868  11.789523815
S1  -7.33026228955  8.12509761959  10.24440811
S2  -7.33026228955  8.12509761959  13.33463952
Mo  -8.76055737249  7.03388668878  11.789523815
S1  -9.22029507491  10.6024413597  10.24440811
S2  -9.22029507491  10.6024413597  13.33463952
Mo  -10.6505901579  9.51123042888  11.789523815
S1  -11.1103278603  13.0797850998  10.24440811
S2  -11.1103278603  13.0797850998  13.33463952
Mo  -12.5406229432  11.988574169  11.789523815
S1  -13.0003606456  15.5571288399  10.24440811
S2  -13.0003606456  15.5571288399  13.33463952
Mo  -14.4306557286  14.4659179091  11.789523815
S1  -14.890393431  18.03447258  10.24440811
S2  -14.890393431  18.03447258  13.33463952
Mo  -16.3206885139  16.9432616492  11.789523815
S1  -16.7804262164  20.5118163201  10.24440811
S2  -16.7804262164  20.5118163201  13.33463952
Mo  -18.2107212993  19.4206053893  11.789523815
S1  -18.6704590017  22.9891600602  10.24440811
S2  -18.6704590017  22.9891600602  13.33463952
Mo  -20.1007540847  21.8979491294  11.789523815
S1  -20.5604917871  25.4665038003  10.24440811
S2  -20.5604917871  25.4665038003  13.33463952
Mo  -21.99078687  24.3752928695  11.789523815
S1  -22.4505245725  27.9438475404  10.24440811
S2  -22.4505245725  27.9438475404  13.33463952
Mo  -23.8808196554  26.8526366096  11.789523815
S1  -24.3405573578  30.4211912805  10.24440811
S2  -24.3405573578  30.4211912805  13.33463952
Mo  -3.78006557073  4.9546874802  11.789523815
S1  -4.23980327315  8.52324215111  10.24440811
S2  -4.23980327315  8.52324215111  13.33463952
Mo  -5.67009835609  7.4320312203  11.789523815
S1  -6.12983605852  11.0005858912  10.24440811
S2  -6.12983605852  11.0005858912  13.33463952
Mo  -7.56013114145  9.9093749604  11.789523815
S1  -8.01986884388  13.4779296313  10.24440811
S2  -8.01986884388  13.4779296313  13.33463952
Mo  -9.45016392682  12.3867187005  11.789523815
S1  -9.90990162924  15.9552733714  10.24440811
S2  -9.90990162924  15.9552733714  13.33463952
Mo  -11.3401967122  14.8640624406  11.789523815
S1  -11.7999344146  18.4326171115  10.24440811
S2  -11.7999344146  18.4326171115  13.33463952
Mo  -13.2302294975  17.3414061807  11.789523815
S1  -13.6899672  20.9099608516  10.24440811
S2  -13.6899672  20.9099608516  13.33463952
Mo  -15.1202622829  19.8187499208  11.789523815
S1  -15.5799999853  23.3873045917  10.24440811
S2  -15.5799999853  23.3873045917  13.33463952
Mo  -17.0102950683  22.2960936609  11.789523815
S1  -17.4700327707  25.8646483318  10.24440811
S2  -17.4700327707  25.8646483318  13.33463952
Mo  -18.9003278536  24.773437401  11.789523815
S1  -19.3600655561  28.3419920719  10.24440811
S2  -19.3600655561  28.3419920719  13.33463952
Mo  -20.790360639  27.2507811411  11.789523815
S1  -21.2500983414  30.819335812  10.24440811
S2  -21.2500983414  30.819335812  13.33463952
Mo  -22.6803934244  29.7281248812  11.789523815
Mo  -24.5704262097  32.2054686213  11.789523815
Mo  -4.46967212506  10.3075194919  11.789523815
S1  -4.92940982749  13.8760741628  10.24440811
S2  -4.92940982749  13.8760741628  13.33463952
Mo  -6.35970491042  12.784863232  11.789523815
S1  -6.81944261285  16.3534179029  10.24440811
S2  -6.81944261285  16.3534179029  13.33463952
Mo  -8.24973769578  15.2622069721  11.789523815
S1  -8.70947539821  18.830761643  10.24440811
S2  -8.70947539821  18.830761643  13.33463952
Mo  -10.1397704812  17.7395507122  11.789523815
S1  -10.5995081836  21.3081053831  10.24440811
S2  -10.5995081836  21.3081053831  13.33463952
Mo  -12.0298032665  20.2168944523  11.789523815
S1  -12.4895409689  23.7854491232  10.24440811
S2  -12.4895409689  23.7854491232  13.33463952
Mo  -13.9198360519  22.6942381924  11.789523815
S1  -14.3795737543  26.2627928633  10.24440811
S2  -14.3795737543  26.2627928633  13.33463952
Mo  -15.8098688372  25.1715819325  11.789523815
Mo  -17.6999016226  27.6489256726  11.789523815
Mo  -19.589934408  30.1262694127  11.789523815
Mo  -5.15927867939  15.6603515036  11.789523815
S1  -5.61901638182  19.2289061745  10.24440811
S2  -5.61901638182  19.2289061745  13.33463952
Mo  -7.04931146475  18.1376952437  11.789523815
S1  -7.50904916718  21.7062499146  10.24440811
S2  -7.50904916718  21.7062499146  13.33463952
Mo  -8.93934425012  20.6150389838  11.789523815
S1  -9.39908195254  24.1835936547  10.24440811
S2  -9.39908195254  24.1835936547  13.33463952
Mo  -10.8293770355  23.0923827239  11.789523815
Mo  -12.7194098208  25.569726464  11.789523815
Mo  -3.95885244836  18.5358397753  11.789523815
S1  -4.41859015078  22.1043944461  10.24440811
S2  -4.41859015078  22.1043944461  13.33463952
Mo  -5.84888523372  21.0131835154  11.789523815
Mo  -7.73891801908  23.4905272554  11.789523815

K_POINTS {GAMMA}