&CONTROL
  calculation  = "scf"
  prefix       = "lego"
  pseudo_dir   = "."
  outdir       = "."
  verbosity="high"
/
&SYSTEM
  ibrav     = 0
  celldm(1) = 4.648726
  nat       = 364
  ntyp      = 1
  vdw_corr = "grimme-d2"
  ecutwfc   = 60
  ecutrho = 600
/
&ELECTRONS
  conv_thr    = 1.D-8
  mixing_beta = 0.3D0
/
&IONS
 ion_dynamics="bfgs"
/

CELL_PARAMETERS {alat}
-0.5	9.526279	0.0
-8.5	4.330127	0.0
0.0	0.0	10.0

ATOMIC_SPECIES
xxxxxxx
xxxxxxx
xxxxxx

ATOMIC_POSITIONS {Angstrom}
C  -20.91  9.231831  0.0
C  -22.14  11.362253  0.0
C  -17.22  7.101408  0.0
C  -18.45  9.231831  0.0
C  -19.68  8.52169  0.0
C  -19.68  11.362253  0.0
C  -20.91  10.652112  0.0
C  -20.91  13.492676  0.0
C  -22.14  12.782535  0.0
C  -22.14  15.623098  0.0
C  -23.37  17.753521  0.0
C  -13.53  4.970986  0.0
C  -14.76  7.101408  0.0
C  -15.99  6.391267  0.0
C  -15.99  9.231831  0.0
C  -17.22  8.52169  0.0
C  -17.22  11.362253  0.0
C  -18.45  10.652112  0.0
C  -18.45  13.492676  0.0
C  -19.68  12.782535  0.0
C  -19.68  15.623098  0.0
C  -20.91  14.912957  0.0
C  -20.91  17.753521  0.0
C  -22.14  17.04338  0.0
C  -22.14  19.883943  0.0
C  -23.37  19.173802  0.0
C  -23.37  22.014366  0.0
C  -9.84  2.840563  0.0
C  -11.07  4.970986  0.0
C  -12.3  4.260845  0.0
C  -12.3  7.101408  0.0
C  -13.53  6.391267  0.0
C  -13.53  9.231831  0.0
C  -14.76  8.52169  0.0
C  -14.76  11.362253  0.0
C  -15.99  10.652112  0.0
C  -15.99  13.492676  0.0
C  -17.22  12.782535  0.0
C  -17.22  15.623098  0.0
C  -18.45  14.912957  0.0
C  -18.45  17.753521  0.0
C  -19.68  17.04338  0.0
C  -19.68  19.883943  0.0
C  -20.91  19.173802  0.0
C  -20.91  22.014366  0.0
C  -22.14  21.304225  0.0
C  -22.14  24.144788  0.0
C  -23.37  23.434647  0.0
C  -23.37  26.275211  0.0
C  -7.38  2.840563  0.0
C  -8.61  2.130422  0.0
C  -8.61  4.970986  0.0
C  -9.84  4.260845  0.0
C  -9.84  7.101408  0.0
C  -11.07  6.391267  0.0
C  -11.07  9.231831  0.0
C  -12.3  8.52169  0.0
C  -12.3  11.362253  0.0
C  -13.53  10.652112  0.0
C  -13.53  13.492676  0.0
C  -14.76  12.782535  0.0
C  -14.76  15.623098  0.0
C  -15.99  14.912957  0.0
C  -15.99  17.753521  0.0
C  -17.22  17.04338  0.0
C  -17.22  19.883943  0.0
C  -18.45  19.173802  0.0
C  -18.45  22.014366  0.0
C  -19.68  21.304225  0.0
C  -19.68  24.144788  0.0
C  -20.91  23.434647  0.0
C  -20.91  26.275211  0.0
C  -22.14  25.56507  0.0
C  -22.14  28.405633  0.0
C  -23.37  27.695492  0.0
C  -23.37  30.536056  0.0
C  -3.69  0.710141  0.0
C  -4.92  2.840563  0.0
C  -6.15  2.130422  0.0
C  -6.15  4.970986  0.0
C  -7.38  4.260845  0.0
C  -7.38  7.101408  0.0
C  -8.61  6.391267  0.0
C  -8.61  9.231831  0.0
C  -9.84  8.52169  0.0
C  -9.84  11.362253  0.0
C  -11.07  10.652112  0.0
C  -11.07  13.492676  0.0
C  -12.3  12.782535  0.0
C  -12.3  15.623098  0.0
C  -13.53  14.912957  0.0
C  -13.53  17.753521  0.0
C  -14.76  17.04338  0.0
C  -14.76  19.883943  0.0
C  -15.99  19.173802  0.0
C  -15.99  22.014366  0.0
C  -17.22  21.304225  0.0
C  -17.22  24.144788  0.0
C  -18.45  23.434647  0.0
C  -18.45  26.275211  0.0
C  -19.68  25.56507  0.0
C  -19.68  28.405633  0.0
C  -20.91  27.695492  0.0
C  -20.91  30.536056  0.0
C  -22.14  29.825915  0.0
C  -23.37  31.956337  0.0
C  -2.46  0.0  0.0
C  -2.46  2.840563  0.0
C  -3.69  2.130422  0.0
C  -3.69  4.970986  0.0
C  -4.92  4.260845  0.0
C  -4.92  7.101408  0.0
C  -6.15  6.391267  0.0
C  -6.15  9.231831  0.0
C  -7.38  8.52169  0.0
C  -7.38  11.362253  0.0
C  -8.61  10.652112  0.0
C  -8.61  13.492676  0.0
C  -9.84  12.782535  0.0
C  -9.84  15.623098  0.0
C  -11.07  14.912957  0.0
C  -11.07  17.753521  0.0
C  -12.3  17.04338  0.0
C  -12.3  19.883943  0.0
C  -13.53  19.173802  0.0
C  -13.53  22.014366  0.0
C  -14.76  21.304225  0.0
C  -14.76  24.144788  0.0
C  -15.99  23.434647  0.0
C  -15.99  26.275211  0.0
C  -17.22  25.56507  0.0
C  -17.22  28.405633  0.0
C  -18.45  27.695492  0.0
C  -19.68  29.825915  0.0
C  -2.46  4.260845  0.0
C  -3.69  6.391267  0.0
C  -3.69  9.231831  0.0
C  -4.92  8.52169  0.0
C  -4.92  11.362253  0.0
C  -6.15  10.652112  0.0
C  -6.15  13.492676  0.0
C  -7.38  12.782535  0.0
C  -7.38  15.623098  0.0
C  -8.61  14.912957  0.0
C  -8.61  17.753521  0.0
C  -9.84  17.04338  0.0
C  -9.84  19.883943  0.0
C  -11.07  19.173802  0.0
C  -11.07  22.014366  0.0
C  -12.3  21.304225  0.0
C  -12.3  24.144788  0.0
C  -13.53  23.434647  0.0
C  -13.53  26.275211  0.0
C  -14.76  25.56507  0.0
C  -15.99  27.695492  0.0
C  -3.69  10.652112  0.0
C  -3.69  13.492676  0.0
C  -4.92  12.782535  0.0
C  -4.92  15.623098  0.0
C  -6.15  14.912957  0.0
C  -6.15  17.753521  0.0
C  -7.38  17.04338  0.0
C  -7.38  19.883943  0.0
C  -8.61  19.173802  0.0
C  -8.61  22.014366  0.0
C  -9.84  21.304225  0.0
C  -9.84  24.144788  0.0
C  -11.07  23.434647  0.0
C  -12.3  25.56507  0.0
C  -3.69  14.912957  0.0
C  -3.69  17.753521  0.0
C  -4.92  17.04338  0.0
C  -4.92  19.883943  0.0
C  -6.15  19.173802  0.0
C  -6.15  22.014366  0.0
C  -7.38  21.304225  0.0
C  -7.38  24.144788  0.0
C  -8.61  23.434647  0.0
C  -3.69  19.173802  0.0
C  -3.69  22.014366  0.0
C  -4.92  21.304225  0.0
C  -6.15  23.434647  0.0
C  -20.761323  9.239625  3.3
C  -22.207588  11.229579  3.3
C  -15.42231  5.517241  3.3
C  -16.868575  7.507195  3.3
C  -18.31484  9.49715  3.3
C  -19.46374  8.662148  3.3
C  -19.761104  11.487104  3.3
C  -20.910005  10.652103  3.3
C  -21.207369  13.477059  3.3
C  -22.35627  12.642057  3.3
C  -22.653633  15.467013  3.3
C  -11.529562  3.784811  3.3
C  -12.975827  5.774766  3.3
C  -14.124728  4.939764  3.3
C  -14.422091  7.76472  3.3
C  -15.570992  6.929719  3.3
C  -15.868356  9.754674  3.3
C  -17.017257  8.919673  3.3
C  -17.314621  11.744629  3.3
C  -18.463521  10.909628  3.3
C  -18.760885  13.734583  3.3
C  -19.909786  12.899582  3.3
C  -20.20715  15.724538  3.3
C  -21.356051  14.889536  3.3
C  -21.653415  17.714492  3.3
C  -22.802315  16.879491  3.3
C  -23.099679  19.704446  3.3
C  -7.636814  2.052382  3.3
C  -9.083079  4.042336  3.3
C  -10.231979  3.207335  3.3
C  -10.529343  6.03229  3.3
C  -11.678244  5.197289  3.3
C  -11.975608  8.022245  3.3
C  -13.124509  7.187243  3.3
C  -13.421873  10.012199  3.3
C  -14.570773  9.177198  3.3
C  -14.868137  12.002154  3.3
C  -16.017038  11.167152  3.3
C  -16.314402  13.992108  3.3
C  -17.463303  13.157107  3.3
C  -17.760667  15.982062  3.3
C  -18.909567  15.147061  3.3
C  -19.206931  17.972017  3.3
C  -20.355832  17.137015  3.3
C  -20.653196  19.961971  3.3
C  -21.802097  19.12697  3.3
C  -22.099461  21.951926  3.3
C  -23.248361  21.116924  3.3
C  -23.545725  23.94188  3.3
C  -3.744066  0.319952  3.3
C  -5.190331  2.309906  3.3
C  -6.339231  1.474905  3.3
C  -6.636595  4.299861  3.3
C  -7.785496  3.464859  3.3
C  -8.08286  6.289815  3.3
C  -9.231761  5.454814  3.3
C  -9.529125  8.279769  3.3
C  -10.678025  7.444768  3.3
C  -10.975389  10.269724  3.3
C  -12.12429  9.434723  3.3
C  -12.421654  12.259678  3.3
C  -13.570555  11.424677  3.3
C  -13.867919  14.249633  3.3
C  -15.016819  13.414631  3.3
C  -15.314183  16.239587  3.3
C  -16.463084  15.404586  3.3
C  -16.760448  18.229541  3.3
C  -17.909349  17.39454  3.3
C  -18.206713  20.219496  3.3
C  -19.355613  19.384495  3.3
C  -19.652977  22.20945  3.3
C  -20.801878  21.374449  3.3
C  -21.099242  24.199405  3.3
C  -22.248143  23.364403  3.3
C  -22.545507  26.189359  3.3
C  -23.694407  25.354358  3.3
C  -2.446483  -0.257525  3.3
C  -2.743847  2.567431  3.3
C  -3.892748  1.73243  3.3
C  -4.190112  4.557385  3.3
C  -5.339013  3.722384  3.3
C  -5.636377  6.54734  3.3
C  -6.785277  5.712338  3.3
C  -7.082641  8.537294  3.3
C  -8.231542  7.702293  3.3
C  -8.528906  10.527249  3.3
C  -9.677807  9.692247  3.3
C  -9.975171  12.517203  3.3
C  -11.124071  11.682202  3.3
C  -11.421435  14.507157  3.3
C  -12.570336  13.672156  3.3
C  -12.8677  16.497112  3.3
C  -14.016601  15.662111  3.3
C  -14.313965  18.487066  3.3
C  -15.462865  17.652065  3.3
C  -15.760229  20.477021  3.3
C  -16.90913  19.642019  3.3
C  -17.206494  22.466975  3.3
C  -18.355395  21.631974  3.3
C  -18.652758  24.456929  3.3
C  -19.801659  23.621928  3.3
C  -20.099023  26.446884  3.3
C  -21.247924  25.611883  3.3
C  -21.545288  28.436838  3.3
C  -22.694188  27.601837  3.3
C  -22.991552  30.426793  3.3
C  -2.892529  3.979909  3.3
C  -3.189893  6.804864  3.3
C  -4.338794  5.969863  3.3
C  -4.636158  8.794819  3.3
C  -5.785059  7.959818  3.3
C  -6.082423  10.784773  3.3
C  -7.231323  9.949772  3.3
C  -7.528687  12.774728  3.3
C  -8.677588  11.939726  3.3
C  -8.974952  14.764682  3.3
C  -10.123853  13.929681  3.3
C  -10.421216  16.754637  3.3
C  -11.570117  15.919635  3.3
C  -11.867481  18.744591  3.3
C  -13.016382  17.90959  3.3
C  -13.313746  20.734545  3.3
C  -14.462646  19.899544  3.3
C  -14.76001  22.7245  3.3
C  -15.908911  21.889498  3.3
C  -16.206275  24.714454  3.3
C  -17.355176  23.879453  3.3
C  -17.65254  26.704409  3.3
C  -18.80144  25.869407  3.3
C  -19.098804  28.694363  3.3
C  -20.247705  27.859362  3.3
C  -20.545069  30.684317  3.3
C  -21.69397  29.849316  3.3
C  -23.140234  31.83927  3.3
C  -3.338575  8.217342  3.3
C  -3.635939  11.042298  3.3
C  -4.78484  10.207297  3.3
C  -5.082204  13.032252  3.3
C  -6.231104  12.197251  3.3
C  -6.528468  15.022207  3.3
C  -7.677369  14.187206  3.3
C  -7.974733  17.012161  3.3
C  -9.123634  16.17716  3.3
C  -9.420998  19.002116  3.3
C  -10.569898  18.167114  3.3
C  -10.867262  20.99207  3.3
C  -12.016163  20.157069  3.3
C  -12.313527  22.982024  3.3
C  -13.462428  22.147023  3.3
C  -13.759792  24.971979  3.3
C  -14.908692  24.136978  3.3
C  -15.206056  26.961933  3.3
C  -16.354957  26.126932  3.3
C  -17.801222  28.116886  3.3
C  -19.247486  30.106841  3.3
C  -3.784621  12.454776  3.3
C  -4.081985  15.279732  3.3
C  -5.230886  14.44473  3.3
C  -5.52825  17.269686  3.3
C  -6.67715  16.434685  3.3
C  -6.974514  19.25964  3.3
C  -8.123415  18.424639  3.3
C  -8.420779  21.249595  3.3
C  -9.56968  20.414593  3.3
C  -9.867044  23.239549  3.3
C  -11.015944  22.404548  3.3
C  -11.313308  25.229504  3.3
C  -12.462209  24.394502  3.3
C  -13.908474  26.384457  3.3
C  -3.081766  17.527211  3.3
C  -4.230667  16.692209  3.3
C  -4.528031  19.517165  3.3
C  -5.676932  18.682164  3.3
C  -5.974296  21.507119  3.3
C  -7.123196  20.672118  3.3
C  -7.42056  23.497074  3.3
C  -8.569461  22.662073  3.3
C  -10.015726  24.652027  3.3
C  -3.230448  18.939689  3.3
C  -3.527812  21.764644  3.3
C  -4.676713  20.929643  3.3
C  -6.122978  22.919597  3.3

K_POINTS {GAMMA}