&CONTROL
  calculation  = "scf"
  prefix       = "lego"
  pseudo_dir   = "."
  outdir       = "."
  verbosity="high"
/
&SYSTEM
  ibrav     = 0
  celldm(1) = 5.888386
  nat       = 42
  ntyp      = 1
  vdw_corr = "grimme-d2"
  ecutwfc   = 60
  ecutrho = 600
/
&ELECTRONS
  conv_thr    = 1.D-8
  mixing_beta = 0.3D0
/
&IONS
 ion_dynamics="bfgs"
/

CELL_PARAMETERS {alat}
-0.5	2.598076	0.0
-2.5	0.866025	0.0
0.0	0.0	10.0

ATOMIC_SPECIES
xxxxxxx
xxxxxxx
xxxxxx

ATOMIC_POSITIONS {Angstrom}
S1  -7.79  0.899512  4.344408
S2  -7.79  0.899512  7.43464
S1  -9.348  3.598047  4.344408
S2  -9.348  3.598047  7.43464
S1  -10.906  6.296582  4.344408
S2  -10.906  6.296582  7.43464
S1  -4.674  0.899512  4.344408
S2  -4.674  0.899512  7.43464
Mo  -6.232  0.0  5.889524
S1  -6.232  3.598047  4.344408
S2  -6.232  3.598047  7.43464
Mo  -7.79  2.698535  5.889524
S1  -7.79  6.296582  4.344408
S2  -7.79  6.296582  7.43464
Mo  -9.348  5.39707  5.889524
Mo  -10.906  8.095605  5.889524
Mo  -3.116  0.0  5.889524
Mo  -4.674  2.698535  5.889524
S1  -4.674  6.296582  4.344408
S2  -4.674  6.296582  7.43464
Mo  -6.232  5.39707  5.889524
S1  -4.674  -0.899511  10.244408
S2  -4.674  -0.899511  13.33464
S1  -7.122285  1.028015  10.244408
S2  -7.122285  1.028015  13.33464
S1  -9.570571  2.95554  10.244408
S2  -9.570571  2.95554  13.33464
Mo  -2.893429  -1.156514  11.789524
S1  -4.228857  2.184529  10.244408
S2  -4.228857  2.184529  13.33464
Mo  -5.341714  0.771011  11.789524
S1  -6.677142  4.112055  10.244408
S2  -6.677142  4.112055  13.33464
Mo  -7.789999  2.698537  11.789524
S1  -9.125427  6.039581  10.244408
S2  -9.125427  6.039581  13.33464
Mo  -10.238285  4.626062  11.789524
S1  -3.783713  5.268569  10.244408
S2  -3.783713  5.268569  13.33464
Mo  -4.896571  3.855051  11.789524
Mo  -7.344856  5.782577  11.789524
Mo  -9.793141  7.710102  11.789524

K_POINTS {GAMMA}