&CONTROL
  calculation  = "relax",
  prefix       = "tBLG",
  pseudo_dir   = ".",
  outdir       = ".",
  verbosity='high'
/
&SYSTEM
  ibrav     = 0,
  celldm(1) = 4.592,
  nat       = 11164,
  ntyp      = 1,
  ecutwfc   = 60,
  vdw_corr = 'grimme-d2'
  occupations = 'smearing'
  smearing = 'gaussian'
  degauss = 0.001
/
&ELECTRONS
  conv_thr    = 1.D-10,
  mixing_beta = 0.7D0,
/
&IONS
 ion_dynamics='bfgs',
/

CELL_PARAMETERS {alat}
-0.500000 52.827549 0.000000
-46.000000 25.980762 0.000000
0.0  0.0       10.2880658

ATOMIC_SPECIES
C 12 C.UPF

ATOMIC_POSITIONS {Angstrom}
C -111.780000 61.730291 0.000000
C -112.995000 63.834732 0.000000
C -108.135000 59.625849 0.000000
C -109.350000 61.730291 0.000000
C -110.565000 61.028810 0.000000
C -110.565000 63.834732 0.000000
C -111.780000 63.133252 0.000000
C -111.780000 65.939174 0.000000
C -112.995000 65.237693 0.000000
C -112.995000 68.043616 0.000000
C -104.490000 57.521407 0.000000
C -105.705000 59.625849 0.000000
C -106.920000 58.924368 0.000000
C -106.920000 61.730291 0.000000
C -108.135000 61.028810 0.000000
C -108.135000 63.834732 0.000000
C -109.350000 63.133252 0.000000
C -109.350000 65.939174 0.000000
C -110.565000 65.237693 0.000000
C -110.565000 68.043616 0.000000
C -111.780000 67.342135 0.000000
C -111.780000 70.148057 0.000000
C -112.995000 69.446577 0.000000
C -112.995000 72.252499 0.000000
C -100.845000 55.416965 0.000000
C -102.060000 57.521407 0.000000
C -103.275000 56.819926 0.000000
C -103.275000 59.625849 0.000000
C -104.490000 58.924368 0.000000
C -104.490000 61.730291 0.000000
C -105.705000 61.028810 0.000000
C -105.705000 63.834732 0.000000
C -106.920000 63.133252 0.000000
C -106.920000 65.939174 0.000000
C -108.135000 65.237693 0.000000
C -108.135000 68.043616 0.000000
C -109.350000 67.342135 0.000000
C -109.350000 70.148057 0.000000
C -110.565000 69.446577 0.000000
C -110.565000 72.252499 0.000000
C -111.780000 71.551019 0.000000
C -111.780000 74.356941 0.000000
C -112.995000 73.655460 0.000000
C -112.995000 76.461383 0.000000
C -97.200000 53.312524 0.000000
C -98.415000 55.416965 0.000000
C -99.630000 54.715485 0.000000
C -99.630000 57.521407 0.000000
C -100.845000 56.819926 0.000000
C -100.845000 59.625849 0.000000
C -102.060000 58.924368 0.000000
C -102.060000 61.730291 0.000000
C -103.275000 61.028810 0.000000
C -103.275000 63.834732 0.000000
C -104.490000 63.133252 0.000000
C -104.490000 65.939174 0.000000
C -105.705000 65.237693 0.000000
C -105.705000 68.043616 0.000000
C -106.920000 67.342135 0.000000
C -106.920000 70.148057 0.000000
C -108.135000 69.446577 0.000000
C -108.135000 72.252499 0.000000
C -109.350000 71.551019 0.000000
C -109.350000 74.356941 0.000000
C -110.565000 73.655460 0.000000
C -110.565000 76.461383 0.000000
C -111.780000 75.759902 0.000000
C -111.780000 78.565824 0.000000
C -112.995000 77.864344 0.000000
C -112.995000 80.670266 0.000000
C -93.555000 51.208082 0.000000
C -94.770000 53.312524 0.000000
C -95.985000 52.611043 0.000000
C -95.985000 55.416965 0.000000
C -97.200000 54.715485 0.000000
C -97.200000 57.521407 0.000000
C -98.415000 56.819926 0.000000
C -98.415000 59.625849 0.000000
C -99.630000 58.924368 0.000000
C -99.630000 61.730291 0.000000
C -100.845000 61.028810 0.000000
C -100.845000 63.834732 0.000000
C -102.060000 63.133252 0.000000
C -102.060000 65.939174 0.000000
C -103.275000 65.237693 0.000000
C -103.275000 68.043616 0.000000
C -104.490000 67.342135 0.000000
C -104.490000 70.148057 0.000000
C -105.705000 69.446577 0.000000
C -105.705000 72.252499 0.000000
C -106.920000 71.551019 0.000000
C -106.920000 74.356941 0.000000
C -108.135000 73.655460 0.000000
C -108.135000 76.461383 0.000000
C -109.350000 75.759902 0.000000
C -109.350000 78.565824 0.000000
C -110.565000 77.864344 0.000000
C -110.565000 80.670266 0.000000
C -111.780000 79.968785 0.000000
C -111.780000 82.774708 0.000000
C -112.995000 82.073227 0.000000
C -112.995000 84.879149 0.000000
C -89.910000 49.103640 0.000000
C -91.125000 51.208082 0.000000
C -92.340000 50.506601 0.000000
C -92.340000 53.312524 0.000000
C -93.555000 52.611043 0.000000
C -93.555000 55.416965 0.000000
C -94.770000 54.715485 0.000000
C -94.770000 57.521407 0.000000
C -95.985000 56.819926 0.000000
C -95.985000 59.625849 0.000000
C -97.200000 58.924368 0.000000
C -97.200000 61.730291 0.000000
C -98.415000 61.028810 0.000000
C -98.415000 63.834732 0.000000
C -99.630000 63.133252 0.000000
C -99.630000 65.939174 0.000000
C -100.845000 65.237693 0.000000
C -100.845000 68.043616 0.000000
C -102.060000 67.342135 0.000000
C -102.060000 70.148057 0.000000
C -103.275000 69.446577 0.000000
C -103.275000 72.252499 0.000000
C -104.490000 71.551019 0.000000
C -104.490000 74.356941 0.000000
C -105.705000 73.655460 0.000000
C -105.705000 76.461383 0.000000
C -106.920000 75.759902 0.000000
C -106.920000 78.565824 0.000000
C -108.135000 77.864344 0.000000
C -108.135000 80.670266 0.000000
C -109.350000 79.968785 0.000000
C -109.350000 82.774708 0.000000
C -110.565000 82.073227 0.000000
C -110.565000 84.879149 0.000000
C -111.780000 84.177669 0.000000
C -111.780000 86.983591 0.000000
C -112.995000 86.282111 0.000000
C -112.995000 89.088033 0.000000
C -86.265000 46.999198 0.000000
C -87.480000 49.103640 0.000000
C -88.695000 48.402160 0.000000
C -88.695000 51.208082 0.000000
C -89.910000 50.506601 0.000000
C -89.910000 53.312524 0.000000
C -91.125000 52.611043 0.000000
C -91.125000 55.416965 0.000000
C -92.340000 54.715485 0.000000
C -92.340000 57.521407 0.000000
C -93.555000 56.819926 0.000000
C -93.555000 59.625849 0.000000
C -94.770000 58.924368 0.000000
C -94.770000 61.730291 0.000000
C -95.985000 61.028810 0.000000
C -95.985000 63.834732 0.000000
C -97.200000 63.133252 0.000000
C -97.200000 65.939174 0.000000
C -98.415000 65.237693 0.000000
C -98.415000 68.043616 0.000000
C -99.630000 67.342135 0.000000
C -99.630000 70.148057 0.000000
C -100.845000 69.446577 0.000000
C -100.845000 72.252499 0.000000
C -102.060000 71.551019 0.000000
C -102.060000 74.356941 0.000000
C -103.275000 73.655460 0.000000
C -103.275000 76.461383 0.000000
C -104.490000 75.759902 0.000000
C -104.490000 78.565824 0.000000
C -105.705000 77.864344 0.000000
C -105.705000 80.670266 0.000000
C -106.920000 79.968785 0.000000
C -106.920000 82.774708 0.000000
C -108.135000 82.073227 0.000000
C -108.135000 84.879149 0.000000
C -109.350000 84.177669 0.000000
C -109.350000 86.983591 0.000000
C -110.565000 86.282111 0.000000
C -110.565000 89.088033 0.000000
C -111.780000 88.386552 0.000000
C -111.780000 91.192475 0.000000
C -112.995000 90.490994 0.000000
C -112.995000 93.296916 0.000000
C -82.620000 44.894757 0.000000
C -83.835000 46.999198 0.000000
C -85.050000 46.297718 0.000000
C -85.050000 49.103640 0.000000
C -86.265000 48.402160 0.000000
C -86.265000 51.208082 0.000000
C -87.480000 50.506601 0.000000
C -87.480000 53.312524 0.000000
C -88.695000 52.611043 0.000000
C -88.695000 55.416965 0.000000
C -89.910000 54.715485 0.000000
C -89.910000 57.521407 0.000000
C -91.125000 56.819926 0.000000
C -91.125000 59.625849 0.000000
C -92.340000 58.924368 0.000000
C -92.340000 61.730291 0.000000
C -93.555000 61.028810 0.000000
C -93.555000 63.834732 0.000000
C -94.770000 63.133252 0.000000
C -94.770000 65.939174 0.000000
C -95.985000 65.237693 0.000000
C -95.985000 68.043616 0.000000
C -97.200000 67.342135 0.000000
C -97.200000 70.148057 0.000000
C -98.415000 69.446577 0.000000
C -98.415000 72.252499 0.000000
C -99.630000 71.551019 0.000000
C -99.630000 74.356941 0.000000
C -100.845000 73.655460 0.000000
C -100.845000 76.461383 0.000000
C -102.060000 75.759902 0.000000
C -102.060000 78.565824 0.000000
C -103.275000 77.864344 0.000000
C -103.275000 80.670266 0.000000
C -104.490000 79.968785 0.000000
C -104.490000 82.774708 0.000000
C -105.705000 82.073227 0.000000
C -105.705000 84.879149 0.000000
C -106.920000 84.177669 0.000000
C -106.920000 86.983591 0.000000
C -108.135000 86.282111 0.000000
C -108.135000 89.088033 0.000000
C -109.350000 88.386552 0.000000
C -109.350000 91.192475 0.000000
C -110.565000 90.490994 0.000000
C -110.565000 93.296916 0.000000
C -111.780000 92.595436 0.000000
C -111.780000 95.401358 0.000000
C -112.995000 94.699877 0.000000
C -112.995000 97.505800 0.000000
C -78.975000 42.790315 0.000000
C -80.190000 44.894757 0.000000
C -81.405000 44.193276 0.000000
C -81.405000 46.999198 0.000000
C -82.620000 46.297718 0.000000
C -82.620000 49.103640 0.000000
C -83.835000 48.402160 0.000000
C -83.835000 51.208082 0.000000
C -85.050000 50.506601 0.000000
C -85.050000 53.312524 0.000000
C -86.265000 52.611043 0.000000
C -86.265000 55.416965 0.000000
C -87.480000 54.715485 0.000000
C -87.480000 57.521407 0.000000
C -88.695000 56.819926 0.000000
C -88.695000 59.625849 0.000000
C -89.910000 58.924368 0.000000
C -89.910000 61.730291 0.000000
C -91.125000 61.028810 0.000000
C -91.125000 63.834732 0.000000
C -92.340000 63.133252 0.000000
C -92.340000 65.939174 0.000000
C -93.555000 65.237693 0.000000
C -93.555000 68.043616 0.000000
C -94.770000 67.342135 0.000000
C -94.770000 70.148057 0.000000
C -95.985000 69.446577 0.000000
C -95.985000 72.252499 0.000000
C -97.200000 71.551019 0.000000
C -97.200000 74.356941 0.000000
C -98.415000 73.655460 0.000000
C -98.415000 76.461383 0.000000
C -99.630000 75.759902 0.000000
C -99.630000 78.565824 0.000000
C -100.845000 77.864344 0.000000
C -100.845000 80.670266 0.000000
C -102.060000 79.968785 0.000000
C -102.060000 82.774708 0.000000
C -103.275000 82.073227 0.000000
C -103.275000 84.879149 0.000000
C -104.490000 84.177669 0.000000
C -104.490000 86.983591 0.000000
C -105.705000 86.282111 0.000000
C -105.705000 89.088033 0.000000
C -106.920000 88.386552 0.000000
C -106.920000 91.192475 0.000000
C -108.135000 90.490994 0.000000
C -108.135000 93.296916 0.000000
C -109.350000 92.595436 0.000000
C -109.350000 95.401358 0.000000
C -110.565000 94.699877 0.000000
C -110.565000 97.505800 0.000000
C -111.780000 96.804319 0.000000
C -111.780000 99.610242 0.000000
C -112.995000 98.908761 0.000000
C -112.995000 101.714683 0.000000
C -75.330000 40.685873 0.000000
C -76.545000 42.790315 0.000000
C -77.760000 42.088834 0.000000
C -77.760000 44.894757 0.000000
C -78.975000 44.193276 0.000000
C -78.975000 46.999198 0.000000
C -80.190000 46.297718 0.000000
C -80.190000 49.103640 0.000000
C -81.405000 48.402160 0.000000
C -81.405000 51.208082 0.000000
C -82.620000 50.506601 0.000000
C -82.620000 53.312524 0.000000
C -83.835000 52.611043 0.000000
C -83.835000 55.416965 0.000000
C -85.050000 54.715485 0.000000
C -85.050000 57.521407 0.000000
C -86.265000 56.819926 0.000000
C -86.265000 59.625849 0.000000
C -87.480000 58.924368 0.000000
C -87.480000 61.730291 0.000000
C -88.695000 61.028810 0.000000
C -88.695000 63.834732 0.000000
C -89.910000 63.133252 0.000000
C -89.910000 65.939174 0.000000
C -91.125000 65.237693 0.000000
C -91.125000 68.043616 0.000000
C -92.340000 67.342135 0.000000
C -92.340000 70.148057 0.000000
C -93.555000 69.446577 0.000000
C -93.555000 72.252499 0.000000
C -94.770000 71.551019 0.000000
C -94.770000 74.356941 0.000000
C -95.985000 73.655460 0.000000
C -95.985000 76.461383 0.000000
C -97.200000 75.759902 0.000000
C -97.200000 78.565824 0.000000
C -98.415000 77.864344 0.000000
C -98.415000 80.670266 0.000000
C -99.630000 79.968785 0.000000
C -99.630000 82.774708 0.000000
C -100.845000 82.073227 0.000000
C -100.845000 84.879149 0.000000
C -102.060000 84.177669 0.000000
C -102.060000 86.983591 0.000000
C -103.275000 86.282111 0.000000
C -103.275000 89.088033 0.000000
C -104.490000 88.386552 0.000000
C -104.490000 91.192475 0.000000
C -105.705000 90.490994 0.000000
C -105.705000 93.296916 0.000000
C -106.920000 92.595436 0.000000
C -106.920000 95.401358 0.000000
C -108.135000 94.699877 0.000000
C -108.135000 97.505800 0.000000
C -109.350000 96.804319 0.000000
C -109.350000 99.610242 0.000000
C -110.565000 98.908761 0.000000
C -110.565000 101.714683 0.000000
C -111.780000 101.013203 0.000000
C -111.780000 103.819125 0.000000
C -112.995000 103.117644 0.000000
C -112.995000 105.923567 0.000000
C -71.685000 38.581432 0.000000
C -72.900000 40.685873 0.000000
C -74.115000 39.984393 0.000000
C -74.115000 42.790315 0.000000
C -75.330000 42.088834 0.000000
C -75.330000 44.894757 0.000000
C -76.545000 44.193276 0.000000
C -76.545000 46.999198 0.000000
C -77.760000 46.297718 0.000000
C -77.760000 49.103640 0.000000
C -78.975000 48.402160 0.000000
C -78.975000 51.208082 0.000000
C -80.190000 50.506601 0.000000
C -80.190000 53.312524 0.000000
C -81.405000 52.611043 0.000000
C -81.405000 55.416965 0.000000
C -82.620000 54.715485 0.000000
C -82.620000 57.521407 0.000000
C -83.835000 56.819926 0.000000
C -83.835000 59.625849 0.000000
C -85.050000 58.924368 0.000000
C -85.050000 61.730291 0.000000
C -86.265000 61.028810 0.000000
C -86.265000 63.834732 0.000000
C -87.480000 63.133252 0.000000
C -87.480000 65.939174 0.000000
C -88.695000 65.237693 0.000000
C -88.695000 68.043616 0.000000
C -89.910000 67.342135 0.000000
C -89.910000 70.148057 0.000000
C -91.125000 69.446577 0.000000
C -91.125000 72.252499 0.000000
C -92.340000 71.551019 0.000000
C -92.340000 74.356941 0.000000
C -93.555000 73.655460 0.000000
C -93.555000 76.461383 0.000000
C -94.770000 75.759902 0.000000
C -94.770000 78.565824 0.000000
C -95.985000 77.864344 0.000000
C -95.985000 80.670266 0.000000
C -97.200000 79.968785 0.000000
C -97.200000 82.774708 0.000000
C -98.415000 82.073227 0.000000
C -98.415000 84.879149 0.000000
C -99.630000 84.177669 0.000000
C -99.630000 86.983591 0.000000
C -100.845000 86.282111 0.000000
C -100.845000 89.088033 0.000000
C -102.060000 88.386552 0.000000
C -102.060000 91.192475 0.000000
C -103.275000 90.490994 0.000000
C -103.275000 93.296916 0.000000
C -104.490000 92.595436 0.000000
C -104.490000 95.401358 0.000000
C -105.705000 94.699877 0.000000
C -105.705000 97.505800 0.000000
C -106.920000 96.804319 0.000000
C -106.920000 99.610242 0.000000
C -108.135000 98.908761 0.000000
C -108.135000 101.714683 0.000000
C -109.350000 101.013203 0.000000
C -109.350000 103.819125 0.000000
C -110.565000 103.117644 0.000000
C -110.565000 105.923567 0.000000
C -111.780000 105.222086 0.000000
C -111.780000 108.028008 0.000000
C -112.995000 107.326528 0.000000
C -112.995000 110.132450 0.000000
C -68.040000 36.476990 0.000000
C -69.255000 38.581432 0.000000
C -70.470000 37.879951 0.000000
C -70.470000 40.685873 0.000000
C -71.685000 39.984393 0.000000
C -71.685000 42.790315 0.000000
C -72.900000 42.088834 0.000000
C -72.900000 44.894757 0.000000
C -74.115000 44.193276 0.000000
C -74.115000 46.999198 0.000000
C -75.330000 46.297718 0.000000
C -75.330000 49.103640 0.000000
C -76.545000 48.402160 0.000000
C -76.545000 51.208082 0.000000
C -77.760000 50.506601 0.000000
C -77.760000 53.312524 0.000000
C -78.975000 52.611043 0.000000
C -78.975000 55.416965 0.000000
C -80.190000 54.715485 0.000000
C -80.190000 57.521407 0.000000
C -81.405000 56.819926 0.000000
C -81.405000 59.625849 0.000000
C -82.620000 58.924368 0.000000
C -82.620000 61.730291 0.000000
C -83.835000 61.028810 0.000000
C -83.835000 63.834732 0.000000
C -85.050000 63.133252 0.000000
C -85.050000 65.939174 0.000000
C -86.265000 65.237693 0.000000
C -86.265000 68.043616 0.000000
C -87.480000 67.342135 0.000000
C -87.480000 70.148057 0.000000
C -88.695000 69.446577 0.000000
C -88.695000 72.252499 0.000000
C -89.910000 71.551019 0.000000
C -89.910000 74.356941 0.000000
C -91.125000 73.655460 0.000000
C -91.125000 76.461383 0.000000
C -92.340000 75.759902 0.000000
C -92.340000 78.565824 0.000000
C -93.555000 77.864344 0.000000
C -93.555000 80.670266 0.000000
C -94.770000 79.968785 0.000000
C -94.770000 82.774708 0.000000
C -95.985000 82.073227 0.000000
C -95.985000 84.879149 0.000000
C -97.200000 84.177669 0.000000
C -97.200000 86.983591 0.000000
C -98.415000 86.282111 0.000000
C -98.415000 89.088033 0.000000
C -99.630000 88.386552 0.000000
C -99.630000 91.192475 0.000000
C -100.845000 90.490994 0.000000
C -100.845000 93.296916 0.000000
C -102.060000 92.595436 0.000000
C -102.060000 95.401358 0.000000
C -103.275000 94.699877 0.000000
C -103.275000 97.505800 0.000000
C -104.490000 96.804319 0.000000
C -104.490000 99.610242 0.000000
C -105.705000 98.908761 0.000000
C -105.705000 101.714683 0.000000
C -106.920000 101.013203 0.000000
C -106.920000 103.819125 0.000000
C -108.135000 103.117644 0.000000
C -108.135000 105.923567 0.000000
C -109.350000 105.222086 0.000000
C -109.350000 108.028008 0.000000
C -110.565000 107.326528 0.000000
C -110.565000 110.132450 0.000000
C -111.780000 109.430970 0.000000
C -111.780000 112.236892 0.000000
C -112.995000 111.535411 0.000000
C -112.995000 114.341334 0.000000
C -64.395000 34.372548 0.000000
C -65.610000 36.476990 0.000000
C -66.825000 35.775509 0.000000
C -66.825000 38.581432 0.000000
C -68.040000 37.879951 0.000000
C -68.040000 40.685873 0.000000
C -69.255000 39.984393 0.000000
C -69.255000 42.790315 0.000000
C -70.470000 42.088834 0.000000
C -70.470000 44.894757 0.000000
C -71.685000 44.193276 0.000000
C -71.685000 46.999198 0.000000
C -72.900000 46.297718 0.000000
C -72.900000 49.103640 0.000000
C -74.115000 48.402160 0.000000
C -74.115000 51.208082 0.000000
C -75.330000 50.506601 0.000000
C -75.330000 53.312524 0.000000
C -76.545000 52.611043 0.000000
C -76.545000 55.416965 0.000000
C -77.760000 54.715485 0.000000
C -77.760000 57.521407 0.000000
C -78.975000 56.819926 0.000000
C -78.975000 59.625849 0.000000
C -80.190000 58.924368 0.000000
C -80.190000 61.730291 0.000000
C -81.405000 61.028810 0.000000
C -81.405000 63.834732 0.000000
C -82.620000 63.133252 0.000000
C -82.620000 65.939174 0.000000
C -83.835000 65.237693 0.000000
C -83.835000 68.043616 0.000000
C -85.050000 67.342135 0.000000
C -85.050000 70.148057 0.000000
C -86.265000 69.446577 0.000000
C -86.265000 72.252499 0.000000
C -87.480000 71.551019 0.000000
C -87.480000 74.356941 0.000000
C -88.695000 73.655460 0.000000
C -88.695000 76.461383 0.000000
C -89.910000 75.759902 0.000000
C -89.910000 78.565824 0.000000
C -91.125000 77.864344 0.000000
C -91.125000 80.670266 0.000000
C -92.340000 79.968785 0.000000
C -92.340000 82.774708 0.000000
C -93.555000 82.073227 0.000000
C -93.555000 84.879149 0.000000
C -94.770000 84.177669 0.000000
C -94.770000 86.983591 0.000000
C -95.985000 86.282111 0.000000
C -95.985000 89.088033 0.000000
C -97.200000 88.386552 0.000000
C -97.200000 91.192475 0.000000
C -98.415000 90.490994 0.000000
C -98.415000 93.296916 0.000000
C -99.630000 92.595436 0.000000
C -99.630000 95.401358 0.000000
C -100.845000 94.699877 0.000000
C -100.845000 97.505800 0.000000
C -102.060000 96.804319 0.000000
C -102.060000 99.610242 0.000000
C -103.275000 98.908761 0.000000
C -103.275000 101.714683 0.000000
C -104.490000 101.013203 0.000000
C -104.490000 103.819125 0.000000
C -105.705000 103.117644 0.000000
C -105.705000 105.923567 0.000000
C -106.920000 105.222086 0.000000
C -106.920000 108.028008 0.000000
C -108.135000 107.326528 0.000000
C -108.135000 110.132450 0.000000
C -109.350000 109.430970 0.000000
C -109.350000 112.236892 0.000000
C -110.565000 111.535411 0.000000
C -110.565000 114.341334 0.000000
C -111.780000 113.639853 0.000000
C -111.780000 116.445775 0.000000
C -112.995000 115.744295 0.000000
C -112.995000 118.550217 0.000000
C -60.750000 32.268106 0.000000
C -61.965000 34.372548 0.000000
C -63.180000 33.671068 0.000000
C -63.180000 36.476990 0.000000
C -64.395000 35.775509 0.000000
C -64.395000 38.581432 0.000000
C -65.610000 37.879951 0.000000
C -65.610000 40.685873 0.000000
C -66.825000 39.984393 0.000000
C -66.825000 42.790315 0.000000
C -68.040000 42.088834 0.000000
C -68.040000 44.894757 0.000000
C -69.255000 44.193276 0.000000
C -69.255000 46.999198 0.000000
C -70.470000 46.297718 0.000000
C -70.470000 49.103640 0.000000
C -71.685000 48.402160 0.000000
C -71.685000 51.208082 0.000000
C -72.900000 50.506601 0.000000
C -72.900000 53.312524 0.000000
C -74.115000 52.611043 0.000000
C -74.115000 55.416965 0.000000
C -75.330000 54.715485 0.000000
C -75.330000 57.521407 0.000000
C -76.545000 56.819926 0.000000
C -76.545000 59.625849 0.000000
C -77.760000 58.924368 0.000000
C -77.760000 61.730291 0.000000
C -78.975000 61.028810 0.000000
C -78.975000 63.834732 0.000000
C -80.190000 63.133252 0.000000
C -80.190000 65.939174 0.000000
C -81.405000 65.237693 0.000000
C -81.405000 68.043616 0.000000
C -82.620000 67.342135 0.000000
C -82.620000 70.148057 0.000000
C -83.835000 69.446577 0.000000
C -83.835000 72.252499 0.000000
C -85.050000 71.551019 0.000000
C -85.050000 74.356941 0.000000
C -86.265000 73.655460 0.000000
C -86.265000 76.461383 0.000000
C -87.480000 75.759902 0.000000
C -87.480000 78.565824 0.000000
C -88.695000 77.864344 0.000000
C -88.695000 80.670266 0.000000
C -89.910000 79.968785 0.000000
C -89.910000 82.774708 0.000000
C -91.125000 82.073227 0.000000
C -91.125000 84.879149 0.000000
C -92.340000 84.177669 0.000000
C -92.340000 86.983591 0.000000
C -93.555000 86.282111 0.000000
C -93.555000 89.088033 0.000000
C -94.770000 88.386552 0.000000
C -94.770000 91.192475 0.000000
C -95.985000 90.490994 0.000000
C -95.985000 93.296916 0.000000
C -97.200000 92.595436 0.000000
C -97.200000 95.401358 0.000000
C -98.415000 94.699877 0.000000
C -98.415000 97.505800 0.000000
C -99.630000 96.804319 0.000000
C -99.630000 99.610242 0.000000
C -100.845000 98.908761 0.000000
C -100.845000 101.714683 0.000000
C -102.060000 101.013203 0.000000
C -102.060000 103.819125 0.000000
C -103.275000 103.117644 0.000000
C -103.275000 105.923567 0.000000
C -104.490000 105.222086 0.000000
C -104.490000 108.028008 0.000000
C -105.705000 107.326528 0.000000
C -105.705000 110.132450 0.000000
C -106.920000 109.430970 0.000000
C -106.920000 112.236892 0.000000
C -108.135000 111.535411 0.000000
C -108.135000 114.341334 0.000000
C -109.350000 113.639853 0.000000
C -109.350000 116.445775 0.000000
C -110.565000 115.744295 0.000000
C -110.565000 118.550217 0.000000
C -111.780000 117.848736 0.000000
C -111.780000 120.654659 0.000000
C -112.995000 119.953178 0.000000
C -112.995000 122.759100 0.000000
C -57.105000 30.163665 0.000000
C -58.320000 32.268106 0.000000
C -59.535000 31.566626 0.000000
C -59.535000 34.372548 0.000000
C -60.750000 33.671068 0.000000
C -60.750000 36.476990 0.000000
C -61.965000 35.775509 0.000000
C -61.965000 38.581432 0.000000
C -63.180000 37.879951 0.000000
C -63.180000 40.685873 0.000000
C -64.395000 39.984393 0.000000
C -64.395000 42.790315 0.000000
C -65.610000 42.088834 0.000000
C -65.610000 44.894757 0.000000
C -66.825000 44.193276 0.000000
C -66.825000 46.999198 0.000000
C -68.040000 46.297718 0.000000
C -68.040000 49.103640 0.000000
C -69.255000 48.402160 0.000000
C -69.255000 51.208082 0.000000
C -70.470000 50.506601 0.000000
C -70.470000 53.312524 0.000000
C -71.685000 52.611043 0.000000
C -71.685000 55.416965 0.000000
C -72.900000 54.715485 0.000000
C -72.900000 57.521407 0.000000
C -74.115000 56.819926 0.000000
C -74.115000 59.625849 0.000000
C -75.330000 58.924368 0.000000
C -75.330000 61.730291 0.000000
C -76.545000 61.028810 0.000000
C -76.545000 63.834732 0.000000
C -77.760000 63.133252 0.000000
C -77.760000 65.939174 0.000000
C -78.975000 65.237693 0.000000
C -78.975000 68.043616 0.000000
C -80.190000 67.342135 0.000000
C -80.190000 70.148057 0.000000
C -81.405000 69.446577 0.000000
C -81.405000 72.252499 0.000000
C -82.620000 71.551019 0.000000
C -82.620000 74.356941 0.000000
C -83.835000 73.655460 0.000000
C -83.835000 76.461383 0.000000
C -85.050000 75.759902 0.000000
C -85.050000 78.565824 0.000000
C -86.265000 77.864344 0.000000
C -86.265000 80.670266 0.000000
C -87.480000 79.968785 0.000000
C -87.480000 82.774708 0.000000
C -88.695000 82.073227 0.000000
C -88.695000 84.879149 0.000000
C -89.910000 84.177669 0.000000
C -89.910000 86.983591 0.000000
C -91.125000 86.282111 0.000000
C -91.125000 89.088033 0.000000
C -92.340000 88.386552 0.000000
C -92.340000 91.192475 0.000000
C -93.555000 90.490994 0.000000
C -93.555000 93.296916 0.000000
C -94.770000 92.595436 0.000000
C -94.770000 95.401358 0.000000
C -95.985000 94.699877 0.000000
C -95.985000 97.505800 0.000000
C -97.200000 96.804319 0.000000
C -97.200000 99.610242 0.000000
C -98.415000 98.908761 0.000000
C -98.415000 101.714683 0.000000
C -99.630000 101.013203 0.000000
C -99.630000 103.819125 0.000000
C -100.845000 103.117644 0.000000
C -100.845000 105.923567 0.000000
C -102.060000 105.222086 0.000000
C -102.060000 108.028008 0.000000
C -103.275000 107.326528 0.000000
C -103.275000 110.132450 0.000000
C -104.490000 109.430970 0.000000
C -104.490000 112.236892 0.000000
C -105.705000 111.535411 0.000000
C -105.705000 114.341334 0.000000
C -106.920000 113.639853 0.000000
C -106.920000 116.445775 0.000000
C -108.135000 115.744295 0.000000
C -108.135000 118.550217 0.000000
C -109.350000 117.848736 0.000000
C -109.350000 120.654659 0.000000
C -110.565000 119.953178 0.000000
C -110.565000 122.759100 0.000000
C -111.780000 122.057620 0.000000
C -111.780000 124.863542 0.000000
C -112.995000 124.162062 0.000000
C -112.995000 126.967984 0.000000
C -53.460000 28.059223 0.000000
C -54.675000 30.163665 0.000000
C -55.890000 29.462184 0.000000
C -55.890000 32.268106 0.000000
C -57.105000 31.566626 0.000000
C -57.105000 34.372548 0.000000
C -58.320000 33.671068 0.000000
C -58.320000 36.476990 0.000000
C -59.535000 35.775509 0.000000
C -59.535000 38.581432 0.000000
C -60.750000 37.879951 0.000000
C -60.750000 40.685873 0.000000
C -61.965000 39.984393 0.000000
C -61.965000 42.790315 0.000000
C -63.180000 42.088834 0.000000
C -63.180000 44.894757 0.000000
C -64.395000 44.193276 0.000000
C -64.395000 46.999198 0.000000
C -65.610000 46.297718 0.000000
C -65.610000 49.103640 0.000000
C -66.825000 48.402160 0.000000
C -66.825000 51.208082 0.000000
C -68.040000 50.506601 0.000000
C -68.040000 53.312524 0.000000
C -69.255000 52.611043 0.000000
C -69.255000 55.416965 0.000000
C -70.470000 54.715485 0.000000
C -70.470000 57.521407 0.000000
C -71.685000 56.819926 0.000000
C -71.685000 59.625849 0.000000
C -72.900000 58.924368 0.000000
C -72.900000 61.730291 0.000000
C -74.115000 61.028810 0.000000
C -74.115000 63.834732 0.000000
C -75.330000 63.133252 0.000000
C -75.330000 65.939174 0.000000
C -76.545000 65.237693 0.000000
C -76.545000 68.043616 0.000000
C -77.760000 67.342135 0.000000
C -77.760000 70.148057 0.000000
C -78.975000 69.446577 0.000000
C -78.975000 72.252499 0.000000
C -80.190000 71.551019 0.000000
C -80.190000 74.356941 0.000000
C -81.405000 73.655460 0.000000
C -81.405000 76.461383 0.000000
C -82.620000 75.759902 0.000000
C -82.620000 78.565824 0.000000
C -83.835000 77.864344 0.000000
C -83.835000 80.670266 0.000000
C -85.050000 79.968785 0.000000
C -85.050000 82.774708 0.000000
C -86.265000 82.073227 0.000000
C -86.265000 84.879149 0.000000
C -87.480000 84.177669 0.000000
C -87.480000 86.983591 0.000000
C -88.695000 86.282111 0.000000
C -88.695000 89.088033 0.000000
C -89.910000 88.386552 0.000000
C -89.910000 91.192475 0.000000
C -91.125000 90.490994 0.000000
C -91.125000 93.296916 0.000000
C -92.340000 92.595436 0.000000
C -92.340000 95.401358 0.000000
C -93.555000 94.699877 0.000000
C -93.555000 97.505800 0.000000
C -94.770000 96.804319 0.000000
C -94.770000 99.610242 0.000000
C -95.985000 98.908761 0.000000
C -95.985000 101.714683 0.000000
C -97.200000 101.013203 0.000000
C -97.200000 103.819125 0.000000
C -98.415000 103.117644 0.000000
C -98.415000 105.923567 0.000000
C -99.630000 105.222086 0.000000
C -99.630000 108.028008 0.000000
C -100.845000 107.326528 0.000000
C -100.845000 110.132450 0.000000
C -102.060000 109.430970 0.000000
C -102.060000 112.236892 0.000000
C -103.275000 111.535411 0.000000
C -103.275000 114.341334 0.000000
C -104.490000 113.639853 0.000000
C -104.490000 116.445775 0.000000
C -105.705000 115.744295 0.000000
C -105.705000 118.550217 0.000000
C -106.920000 117.848736 0.000000
C -106.920000 120.654659 0.000000
C -108.135000 119.953178 0.000000
C -108.135000 122.759100 0.000000
C -109.350000 122.057620 0.000000
C -109.350000 124.863542 0.000000
C -110.565000 124.162062 0.000000
C -110.565000 126.967984 0.000000
C -111.780000 126.266503 0.000000
C -111.780000 129.072426 0.000000
C -112.995000 128.370945 0.000000
C -112.995000 131.176867 0.000000
C -49.815000 25.954781 0.000000
C -51.030000 28.059223 0.000000
C -52.245000 27.357742 0.000000
C -52.245000 30.163665 0.000000
C -53.460000 29.462184 0.000000
C -53.460000 32.268106 0.000000
C -54.675000 31.566626 0.000000
C -54.675000 34.372548 0.000000
C -55.890000 33.671068 0.000000
C -55.890000 36.476990 0.000000
C -57.105000 35.775509 0.000000
C -57.105000 38.581432 0.000000
C -58.320000 37.879951 0.000000
C -58.320000 40.685873 0.000000
C -59.535000 39.984393 0.000000
C -59.535000 42.790315 0.000000
C -60.750000 42.088834 0.000000
C -60.750000 44.894757 0.000000
C -61.965000 44.193276 0.000000
C -61.965000 46.999198 0.000000
C -63.180000 46.297718 0.000000
C -63.180000 49.103640 0.000000
C -64.395000 48.402160 0.000000
C -64.395000 51.208082 0.000000
C -65.610000 50.506601 0.000000
C -65.610000 53.312524 0.000000
C -66.825000 52.611043 0.000000
C -66.825000 55.416965 0.000000
C -68.040000 54.715485 0.000000
C -68.040000 57.521407 0.000000
C -69.255000 56.819926 0.000000
C -69.255000 59.625849 0.000000
C -70.470000 58.924368 0.000000
C -70.470000 61.730291 0.000000
C -71.685000 61.028810 0.000000
C -71.685000 63.834732 0.000000
C -72.900000 63.133252 0.000000
C -72.900000 65.939174 0.000000
C -74.115000 65.237693 0.000000
C -74.115000 68.043616 0.000000
C -75.330000 67.342135 0.000000
C -75.330000 70.148057 0.000000
C -76.545000 69.446577 0.000000
C -76.545000 72.252499 0.000000
C -77.760000 71.551019 0.000000
C -77.760000 74.356941 0.000000
C -78.975000 73.655460 0.000000
C -78.975000 76.461383 0.000000
C -80.190000 75.759902 0.000000
C -80.190000 78.565824 0.000000
C -81.405000 77.864344 0.000000
C -81.405000 80.670266 0.000000
C -82.620000 79.968785 0.000000
C -82.620000 82.774708 0.000000
C -83.835000 82.073227 0.000000