&CONTROL
  calculation  = "scf"
  prefix       = "lego"
  pseudo_dir   = "."
  outdir       = "."
  verbosity="high"
/
&SYSTEM
  ibrav     = 0
  celldm(1) = 4.648726
  nat       = 364
  ntyp      = 1
  vdw_corr = "grimme-d2"
  ecutwfc   = 60
  ecutrho = 600
/
&ELECTRONS
  conv_thr    = 1.D-8
  mixing_beta = 0.3D0
/
&IONS
 ion_dynamics="bfgs"
/

CELL_PARAMETERS {alat}
-0.5	9.526279	0.0
-8.5	4.330127	0.0
0.0	0.0	10.0

ATOMIC_SPECIES
xxxxxxx
xxxxxxx
xxxxxx

ATOMIC_POSITIONS {Angstrom}
C  -20.91  9.231831  0.0
C  -22.14  11.362253  0.0
C  -17.22  7.101408  0.0
C  -18.45  9.231831  0.0
C  -19.68  8.52169  0.0
C  -19.68  11.362253  0.0
C  -20.91  10.652112  0.0
C  -20.91  13.492676  0.0
C  -22.14  12.782535  0.0
C  -22.14  15.623098  0.0
C  -23.37  17.753521  0.0
C  -13.53  4.970986  0.0
C  -14.76  7.101408  0.0
C  -15.99  6.391267  0.0
C  -15.99  9.231831  0.0
C  -17.22  8.52169  0.0
C  -17.22  11.362253  0.0
C  -18.45  10.652112  0.0
C  -18.45  13.492676  0.0
C  -19.68  12.782535  0.0
C  -19.68  15.623098  0.0
C  -20.91  14.912957  0.0
C  -20.91  17.753521  0.0
C  -22.14  17.04338  0.0
C  -22.14  19.883943  0.0
C  -23.37  19.173802  0.0
C  -23.37  22.014366  0.0
C  -9.84  2.840563  0.0
C  -11.07  4.970986  0.0
C  -12.3  4.260845  0.0
C  -12.3  7.101408  0.0
C  -13.53  6.391267  0.0
C  -13.53  9.231831  0.0
C  -14.76  8.52169  0.0
C  -14.76  11.362253  0.0
C  -15.99  10.652112  0.0
C  -15.99  13.492676  0.0
C  -17.22  12.782535  0.0
C  -17.22  15.623098  0.0
C  -18.45  14.912957  0.0
C  -18.45  17.753521  0.0
C  -19.68  17.04338  0.0
C  -19.68  19.883943  0.0
C  -20.91  19.173802  0.0
C  -20.91  22.014366  0.0
C  -22.14  21.304225  0.0
C  -22.14  24.144788  0.0
C  -23.37  23.434647  0.0
C  -23.37  26.275211  0.0
C  -7.38  2.840563  0.0
C  -8.61  2.130422  0.0
C  -8.61  4.970986  0.0
C  -9.84  4.260845  0.0
C  -9.84  7.101408  0.0
C  -11.07  6.391267  0.0
C  -11.07  9.231831  0.0
C  -12.3  8.52169  0.0
C  -12.3  11.362253  0.0
C  -13.53  10.652112  0.0
C  -13.53  13.492676  0.0
C  -14.76  12.782535  0.0
C  -14.76  15.623098  0.0
C  -15.99  14.912957  0.0
C  -15.99  17.753521  0.0
C  -17.22  17.04338  0.0
C  -17.22  19.883943  0.0
C  -18.45  19.173802  0.0
C  -18.45  22.014366  0.0
C  -19.68  21.304225  0.0
C  -19.68  24.144788  0.0
C  -20.91  23.434647  0.0
C  -20.91  26.275211  0.0
C  -22.14  25.56507  0.0
C  -22.14  28.405633  0.0
C  -23.37  27.695492  0.0
C  -23.37  30.536056  0.0
C  -3.69  0.710141  0.0
C  -4.92  2.840563  0.0
C  -6.15  2.130422  0.0
C  -6.15  4.970986  0.0
C  -7.38  4.260845  0.0
C  -7.38  7.101408  0.0
C  -8.61  6.391267  0.0
C  -8.61  9.231831  0.0
C  -9.84  8.52169  0.0
C  -9.84  11.362253  0.0
C  -11.07  10.652112  0.0
C  -11.07  13.492676  0.0
C  -12.3  12.782535  0.0
C  -12.3  15.623098  0.0
C  -13.53  14.912957  0.0
C  -13.53  17.753521  0.0
C  -14.76  17.04338  0.0
C  -14.76  19.883943  0.0
C  -15.99  19.173802  0.0
C  -15.99  22.014366  0.0
C  -17.22  21.304225  0.0
C  -17.22  24.144788  0.0
C  -18.45  23.434647  0.0
C  -18.45  26.275211  0.0
C  -19.68  25.56507  0.0
C  -19.68  28.405633  0.0
C  -20.91  27.695492  0.0
C  -20.91  30.536056  0.0
C  -22.14  29.825915  0.0
C  -23.37  31.956337  0.0
C  -2.46  0.0  0.0
C  -2.46  2.840563  0.0
C  -3.69  2.130422  0.0
C  -3.69  4.970986  0.0
C  -4.92  4.260845  0.0
C  -4.92  7.101408  0.0
C  -6.15  6.391267  0.0
C  -6.15  9.231831  0.0
C  -7.38  8.52169  0.0
C  -7.38  11.362253  0.0
C  -8.61  10.652112  0.0
C  -8.61  13.492676  0.0
C  -9.84  12.782535  0.0
C  -9.84  15.623098  0.0
C  -11.07  14.912957  0.0
C  -11.07  17.753521  0.0
C  -12.3  17.04338  0.0
C  -12.3  19.883943  0.0
C  -13.53  19.173802  0.0
C  -13.53  22.014366  0.0
C  -14.76  21.304225  0.0
C  -14.76  24.144788  0.0
C  -15.99  23.434647  0.0
C  -15.99  26.275211  0.0
C  -17.22  25.56507  0.0
C  -17.22  28.405633  0.0
C  -18.45  27.695492  0.0
C  -19.68  29.825915  0.0
C  -2.46  4.260845  0.0
C  -3.69  6.391267  0.0
C  -3.69  9.231831  0.0
C  -4.92  8.52169  0.0
C  -4.92  11.362253  0.0
C  -6.15  10.652112  0.0
C  -6.15  13.492676  0.0
C  -7.38  12.782535  0.0
C  -7.38  15.623098  0.0
C  -8.61  14.912957  0.0
C  -8.61  17.753521  0.0
C  -9.84  17.04338  0.0
C  -9.84  19.883943  0.0
C  -11.07  19.173802  0.0
C  -11.07  22.014366  0.0
C  -12.3  21.304225  0.0
C  -12.3  24.144788  0.0
C  -13.53  23.434647  0.0
C  -13.53  26.275211  0.0
C  -14.76  25.56507  0.0
C  -15.99  27.695492  0.0
C  -3.69  10.652112  0.0
C  -3.69  13.492676  0.0
C  -4.92  12.782535  0.0
C  -4.92  15.623098  0.0
C  -6.15  14.912957  0.0
C  -6.15  17.753521  0.0
C  -7.38  17.04338  0.0
C  -7.38  19.883943  0.0
C  -8.61  19.173802  0.0
C  -8.61  22.014366  0.0
C  -9.84  21.304225  0.0
C  -9.84  24.144788  0.0
C  -11.07  23.434647  0.0
C  -12.3  25.56507  0.0
C  -3.69  14.912957  0.0
C  -3.69  17.753521  0.0
C  -4.92  17.04338  0.0
C  -4.92  19.883943  0.0
C  -6.15  19.173802  0.0
C  -6.15  22.014366  0.0
C  -7.38  21.304225  0.0
C  -7.38  24.144788  0.0
C  -8.61  23.434647  0.0
C  -3.69  19.173802  0.0
C  -3.69  22.014366  0.0
C  -4.92  21.304225  0.0
C  -6.15  23.434647  0.0
C  -20.761319  9.239634  3.3
C  -22.207582  11.22959  3.3
C  -15.422308  5.517248  3.3
C  -16.868571  7.507203  3.3
C  -18.314835  9.497158  3.3
C  -19.463736  8.662157  3.3
C  -19.761099  11.487113  3.3
C  -20.91  10.652112  3.3
C  -21.207363  13.477068  3.3
C  -22.356264  12.642067  3.3
C  -22.653626  15.467023  3.3
C  -11.52956  3.784816  3.3
C  -12.975824  5.774772  3.3
C  -14.124725  4.939771  3.3
C  -14.422088  7.764727  3.3
C  -15.570989  6.929726  3.3
C  -15.868352  9.754682  3.3
C  -17.017253  8.919681  3.3
C  -17.314615  11.744637  3.3
C  -18.463516  10.909636  3.3
C  -18.760879  13.734592  3.3
C  -19.90978  12.899591  3.3
C  -20.207143  15.724547  3.3
C  -21.356044  14.889546  3.3
C  -21.653407  17.714502  3.3
C  -22.802308  16.879501  3.3
C  -23.09967  19.704457  3.3
C  -7.636813  2.052385  3.3
C  -9.083077  4.04234  3.3
C  -10.231978  3.207339  3.3
C  -10.529341  6.032295  3.3
C  -11.678242  5.197294  3.3
C  -11.975604  8.02225  3.3
C  -13.124505  7.187249  3.3
C  -13.421868  10.012205  3.3
C  -14.570769  9.177205  3.3
C  -14.868132  12.00216  3.3
C  -16.017033  11.16716  3.3
C  -16.314396  13.992115  3.3
C  -17.463297  13.157115  3.3
C  -17.760659  15.98207  3.3
C  -18.90956  15.14707  3.3
C  -19.206923  17.972026  3.3
C  -20.355824  17.137025  3.3
C  -20.653187  19.961981  3.3
C  -21.802088  19.12698  3.3
C  -22.099451  21.951936  3.3
C  -23.248352  21.116935  3.3
C  -23.545714  23.941891  3.3
C  -3.744066  0.319954  3.3
C  -5.19033  2.309909  3.3
C  -6.339231  1.474908  3.3
C  -6.636593  4.299864  3.3
C  -7.785495  3.464863  3.3
C  -8.082857  6.289819  3.3
C  -9.231758  5.454818  3.3
C  -9.529121  8.279774  3.3
C  -10.678022  7.444773  3.3
C  -10.975385  10.269729  3.3
C  -12.124286  9.434728  3.3
C  -12.421648  12.259684  3.3
C  -13.570549  11.424683  3.3
C  -13.867912  14.249639  3.3
C  -15.016813  13.414638  3.3
C  -15.314176  16.239594  3.3
C  -16.463077  15.404593  3.3
C  -16.76044  18.229549  3.3
C  -17.909341  17.394548  3.3
C  -18.206703  20.219504  3.3
C  -19.355604  19.384503  3.3
C  -19.652967  22.209459  3.3
C  -20.801868  21.374459  3.3
C  -21.099231  24.199414  3.3
C  -22.248132  23.364414  3.3
C  -22.545494  26.189369  3.3
C  -23.694396  25.354369  3.3
C  -2.446484  -0.257524  3.3
C  -2.743846  2.567432  3.3
C  -3.892747  1.732431  3.3
C  -4.19011  4.557387  3.3
C  -5.339011  3.722387  3.3
C  -5.636374  6.547342  3.3
C  -6.785275  5.712342  3.3
C  -7.082637  8.537297  3.3
C  -8.231538  7.702297  3.3
C  -8.528901  10.527252  3.3
C  -9.677802  9.692252  3.3
C  -9.975165  12.517208  3.3
C  -11.124066  11.682207  3.3
C  -11.421429  14.507163  3.3
C  -12.57033  13.672162  3.3
C  -12.867692  16.497118  3.3
C  -14.016593  15.662117  3.3
C  -14.313956  18.487073  3.3
C  -15.462857  17.652072  3.3
C  -15.76022  20.477028  3.3
C  -16.909121  19.642027  3.3
C  -17.206484  22.466983  3.3
C  -18.355385  21.631982  3.3
C  -18.652747  24.456938  3.3
C  -19.801648  23.621937  3.3
C  -20.099011  26.446893  3.3
C  -21.247912  25.611892  3.3
C  -21.545275  28.436848  3.3
C  -22.694176  27.601847  3.3
C  -22.991538  30.426803  3.3
C  -2.892527  3.97991  3.3
C  -3.18989  6.804866  3.3
C  -4.338791  5.969865  3.3
C  -4.636154  8.794821  3.3
C  -5.785055  7.95982  3.3
C  -6.082418  10.784776  3.3
C  -7.231319  9.949775  3.3
C  -7.528681  12.774731  3.3
C  -8.677582  11.93973  3.3
C  -8.974945  14.764686  3.3
C  -10.123846  13.929685  3.3
C  -10.421209  16.754641  3.3
C  -11.57011  15.919641  3.3
C  -11.867473  18.744596  3.3
C  -13.016374  17.909596  3.3
C  -13.313736  20.734551  3.3
C  -14.462637  19.899551  3.3
C  -14.76  22.724506  3.3
C  -15.908901  21.889506  3.3
C  -16.206264  24.714462  3.3
C  -17.355165  23.879461  3.3
C  -17.652527  26.704417  3.3
C  -18.801429  25.869416  3.3
C  -19.098791  28.694372  3.3
C  -20.247692  27.859371  3.3
C  -20.545055  30.684327  3.3
C  -21.693956  29.849326  3.3
C  -23.14022  31.839281  3.3
C  -3.338571  8.217344  3.3
C  -3.635934  11.0423  3.3
C  -4.784835  10.207299  3.3
C  -5.082198  13.032255  3.3
C  -6.231099  12.197254  3.3
C  -6.528462  15.02221  3.3
C  -7.677363  14.187209  3.3
C  -7.974725  17.012165  3.3
C  -9.123626  16.177164  3.3
C  -9.420989  19.00212  3.3
C  -10.56989  18.167119  3.3
C  -10.867253  20.992075  3.3
C  -12.016154  20.157074  3.3
C  -12.313516  22.98203  3.3
C  -13.462418  22.147029  3.3
C  -13.75978  24.971985  3.3
C  -14.908681  24.136984  3.3
C  -15.206044  26.96194  3.3
C  -16.354945  26.126939  3.3
C  -17.801209  28.116895  3.3
C  -19.247473  30.10685  3.3
C  -3.784615  12.454778  3.3
C  -4.081978  15.279733  3.3
C  -5.230879  14.444733  3.3
C  -5.528242  17.269688  3.3
C  -6.677143  16.434688  3.3
C  -6.974505  19.259644  3.3
C  -8.123407  18.424643  3.3
C  -8.420769  21.249599  3.3
C  -9.56967  20.414598  3.3
C  -9.867033  23.239554  3.3
C  -11.015934  22.404553  3.3
C  -11.313297  25.229509  3.3
C  -12.462198  24.394508  3.3
C  -13.908462  26.384463  3.3
C  -3.081758  17.527212  3.3
C  -4.230659  16.692211  3.3
C  -4.528022  19.517167  3.3
C  -5.676923  18.682166  3.3
C  -5.974286  21.507122  3.3
C  -7.123187  20.672121  3.3
C  -7.420549  23.497077  3.3
C  -8.569451  22.662077  3.3
C  -10.015714  24.652032  3.3
C  -3.23044  18.93969  3.3
C  -3.527802  21.764646  3.3
C  -4.676703  20.929645  3.3
C  -6.122967  22.9196  3.3

K_POINTS {GAMMA}