&CONTROL
  calculation  = "scf",
  prefix       = "2HMoS2mono",
  pseudo_dir   = ".",
  outdir       = ".",
  verbosity = "high"
/
&SYSTEM
  ibrav     = 0,
  celldm(1) = 5.95,
  nat       = 42
  ntyp      = 2,
  vdw_corr = 'grimme-d2',
  ecutwfc   = 45,
  ecutrho = 450,
/
&ELECTRONS
  conv_thr    = 1.D-8,
  mixing_beta = 0.7D0,
/
&IONS
 ion_dynamics='bfgs',
/
&CELL
 cell_dynamics='bfgs'
 press=0.0,
/
CELL_PARAMETERS {alat}
-0.500000 2.598076 0.000000
-2.500000 0.866025 0.000000
0.0000000 0.000000 11.285726

ATOMIC_SPECIES
Mo 95.94   Mo.pz-spn-rrkjus_psl.0.3.0.UPF
S  32.065  S.pz-n-rrkjus_psl.0.1.UPF

ATOMIC_POSITIONS (angstrom)
S -7.871552 0.908929 7.548172
S -7.871552 0.908929 4.410750
S -9.445863 3.635714 7.548172
S -9.445863 3.635714 4.410750
S -4.722932 0.908929 7.548172
S -4.722932 0.908929 4.410750
Mo -6.297242 0.000000 5.979461
S -6.297242 3.635714 7.548172
S -6.297242 3.635714 4.410750
Mo -7.871552 2.726786 5.979461
S -7.871553 6.362500 7.548172
S -7.871553 6.362500 4.410750
Mo -9.445863 5.453572 5.979461
Mo -3.148621 -0.000000 5.979461
S -3.148621 3.635714 7.548172
S -3.148621 3.635714 4.410750
Mo -4.722931 2.726786 5.979461
S -4.722931 6.362500 7.548172
S -4.722931 6.362500 4.410750
Mo -6.297242 5.453572 5.979461
Mo -3.148621 5.453572 5.979461
S -4.722931 -0.908929 13.527632
S -4.722931 -0.908929 10.390211
S -7.196848 1.038776 13.527632
S -7.196848 1.038776 10.390211
S -9.670764 2.986480 13.527632
S -9.670764 2.986480 10.390211
Mo -2.923719 -1.168622 11.958922
S -4.273128 2.207398 13.527632
S -4.273128 2.207398 10.390211
Mo -5.397636 0.779082 11.958922
S -6.747045 4.155102 13.527632
S -6.747045 4.155102 10.390211
Mo -7.871552 2.726786 11.958922
S -9.220961 6.102806 13.527632
S -9.220961 6.102806 10.390211
Mo -2.473916 1.947704 11.958922
S -3.823325 5.323725 13.527632
S -3.823325 5.323725 10.390211
Mo -4.947833 3.895408 11.958922
Mo -7.421749 5.843112 11.958922
Mo -2.024113 5.064031 11.958922

K_POINTS {crystal}
6 6 1 0 0 0
