&CONTROL
  calculation  = "scf"
  prefix       = "lego"
  pseudo_dir   = "."
  outdir       = "."
  verbosity="high"
/
&SYSTEM
  ibrav     = 0
  celldm(1) = 5.888386
  nat       = 114
  ntyp      = 1
  vdw_corr = "grimme-d2"
  ecutwfc   = 60
  ecutrho = 600
/
&ELECTRONS
  conv_thr    = 1.D-8
  mixing_beta = 0.3D0
/
&IONS
 ion_dynamics="bfgs"
/

CELL_PARAMETERS {alat}
-0.5	4.330127	0.0
-4.0	1.732051	0.0
0.0	0.0	10.0

ATOMIC_SPECIES
xxxxxxx
xxxxxxx
xxxxxx

ATOMIC_POSITIONS {Angstrom}
S1  -12.464  3.598047  4.344408
S2  -12.464  3.598047  7.43464
S1  -14.022  6.296582  4.344408
S2  -14.022  6.296582  7.43464
S1  -15.58  8.995117  4.344408
S2  -15.58  8.995117  7.43464
S1  -7.79  0.899512  4.344408
S2  -7.79  0.899512  7.43464
S1  -9.348  3.598047  4.344408
S2  -9.348  3.598047  7.43464
Mo  -10.906  2.698535  5.889524
S1  -10.906  6.296582  4.344408
S2  -10.906  6.296582  7.43464
Mo  -12.464  5.39707  5.889524
S1  -12.464  8.995117  4.344408
S2  -12.464  8.995117  7.43464
Mo  -14.022  8.095605  5.889524
S1  -14.022  11.693652  4.344408
S2  -14.022  11.693652  7.43464
Mo  -15.58  10.794141  5.889524
S1  -15.58  14.392187  4.344408
S2  -15.58  14.392187  7.43464
S1  -4.674  0.899512  4.344408
S2  -4.674  0.899512  7.43464
Mo  -6.232  0.0  5.889524
S1  -6.232  3.598047  4.344408
S2  -6.232  3.598047  7.43464
Mo  -7.79  2.698535  5.889524
S1  -7.79  6.296582  4.344408
S2  -7.79  6.296582  7.43464
Mo  -9.348  5.39707  5.889524
S1  -9.348  8.995117  4.344408
S2  -9.348  8.995117  7.43464
Mo  -10.906  8.095605  5.889524
S1  -10.906  11.693652  4.344408
S2  -10.906  11.693652  7.43464
Mo  -12.464  10.794141  5.889524
S1  -12.464  14.392187  4.344408
S2  -12.464  14.392187  7.43464
Mo  -14.022  13.492676  5.889524
Mo  -15.58  16.191211  5.889524
Mo  -3.116  0.0  5.889524
Mo  -4.674  2.698535  5.889524
S1  -4.674  6.296582  4.344408
S2  -4.674  6.296582  7.43464
Mo  -6.232  5.39707  5.889524
S1  -6.232  8.995117  4.344408
S2  -6.232  8.995117  7.43464
Mo  -7.79  8.095605  5.889524
S1  -7.79  11.693652  4.344408
S2  -7.79  11.693652  7.43464
Mo  -9.348  10.794141  5.889524
Mo  -10.906  13.492676  5.889524
Mo  -4.674  8.095605  5.889524
S1  -4.674  11.693652  4.344408
S2  -4.674  11.693652  7.43464
Mo  -6.232  10.794141  5.889524
S1  -9.922  1.372937  10.244408
S2  -9.922  1.372937  13.33464
S1  -12.054001  3.645388  10.244408
S2  -12.054001  3.645388  13.33464
S1  -14.186001  5.917838  10.244408
S2  -14.186001  5.917838  13.33464
S1  -4.756  -0.189372  10.244408
S2  -4.756  -0.189372  13.33464
S1  -6.888  2.083079  10.244408
S2  -6.888  2.083079  13.33464
Mo  -8.2  0.852168  11.789524
S1  -9.020001  4.355529  10.244408
S2  -9.020001  4.355529  13.33464
Mo  -10.332  3.124618  11.789524
S1  -11.152001  6.627979  10.244408
S2  -11.152001  6.627979  13.33464
Mo  -12.464001  5.397068  11.789524
S1  -13.284001  8.90043  10.244408
S2  -13.284001  8.90043  13.33464
Mo  -14.596001  7.669519  11.789524
S1  -15.416002  11.17288  10.244408
S2  -15.416002  11.17288  13.33464
Mo  -3.034  -0.710141  11.789524
S1  -3.854  2.79322  10.244408
S2  -3.854  2.79322  13.33464
Mo  -5.166  1.562309  11.789524
S1  -5.986001  5.06567  10.244408
S2  -5.986001  5.06567  13.33464
Mo  -7.298001  3.834759  11.789524
S1  -8.118001  7.338121  10.244408
S2  -8.118001  7.338121  13.33464
Mo  -9.430001  6.10721  11.789524
S1  -10.250002  9.610571  10.244408
S2  -10.250002  9.610571  13.33464
Mo  -11.562001  8.37966  11.789524
S1  -12.382002  11.883021  10.244408
S2  -12.382002  11.883021  13.33464
Mo  -13.694002  10.65211  11.789524
S1  -14.514002  14.155472  10.244408
S2  -14.514002  14.155472  13.33464
Mo  -15.826002  12.924561  11.789524
Mo  -4.264001  4.544901  11.789524
S1  -5.084001  8.048262  10.244408
S2  -5.084001  8.048262  13.33464
Mo  -6.396001  6.817351  11.789524
S1  -7.216002  10.320712  10.244408
S2  -7.216002  10.320712  13.33464
Mo  -8.528001  9.089801  11.789524
S1  -9.348002  12.593163  10.244408
S2  -9.348002  12.593163  13.33464
Mo  -10.660002  11.362252  11.789524
Mo  -12.792002  13.634702  11.789524
Mo  -14.924003  15.907152  11.789524
S1  -4.182002  11.030854  10.244408
S2  -4.182002  11.030854  13.33464
Mo  -5.494002  9.799943  11.789524
Mo  -7.626002  12.072393  11.789524

K_POINTS {GAMMA}