&CONTROL
  calculation  = "scf"
  prefix       = "lego"
  pseudo_dir   = "."
  outdir       = "."
  verbosity="high"
/
&SYSTEM
  ibrav     = 0
  celldm(1) = 4.648726
  nat       = 244
  ntyp      = 1
  vdw_corr = "grimme-d2"
  ecutwfc   = 60
  ecutrho = 600
/
&ELECTRONS
  conv_thr    = 1.D-8
  mixing_beta = 0.3D0
/
&IONS
 ion_dynamics="bfgs"
/

CELL_PARAMETERS {alat}
-0.5	7.794229	0.0
-7.0	3.464102	0.0
0.0	0.0	10.0

ATOMIC_SPECIES
xxxxxxx
xxxxxxx
xxxxxx

ATOMIC_POSITIONS {Angstrom}
C  -17.22  7.101408  0.0
C  -18.45  9.231831  0.0
C  -13.53  4.970986  0.0
C  -14.76  7.101408  0.0
C  -15.99  6.391267  0.0
C  -15.99  9.231831  0.0
C  -17.22  8.52169  0.0
C  -17.22  11.362253  0.0
C  -18.45  10.652112  0.0
C  -18.45  13.492676  0.0
C  -19.68  15.623098  0.0
C  -9.84  2.840563  0.0
C  -11.07  4.970986  0.0
C  -12.3  4.260845  0.0
C  -12.3  7.101408  0.0
C  -13.53  6.391267  0.0
C  -13.53  9.231831  0.0
C  -14.76  8.52169  0.0
C  -14.76  11.362253  0.0
C  -15.99  10.652112  0.0
C  -15.99  13.492676  0.0
C  -17.22  12.782535  0.0
C  -17.22  15.623098  0.0
C  -18.45  14.912957  0.0
C  -18.45  17.753521  0.0
C  -19.68  17.04338  0.0
C  -19.68  19.883943  0.0
C  -6.15  0.710141  0.0
C  -7.38  2.840563  0.0
C  -8.61  2.130422  0.0
C  -8.61  4.970986  0.0
C  -9.84  4.260845  0.0
C  -9.84  7.101408  0.0
C  -11.07  6.391267  0.0
C  -11.07  9.231831  0.0
C  -12.3  8.52169  0.0
C  -12.3  11.362253  0.0
C  -13.53  10.652112  0.0
C  -13.53  13.492676  0.0
C  -14.76  12.782535  0.0
C  -14.76  15.623098  0.0
C  -15.99  14.912957  0.0
C  -15.99  17.753521  0.0
C  -17.22  17.04338  0.0
C  -17.22  19.883943  0.0
C  -18.45  19.173802  0.0
C  -18.45  22.014366  0.0
C  -19.68  21.304225  0.0
C  -19.68  24.144788  0.0
C  -3.69  0.710141  0.0
C  -4.92  2.840563  0.0
C  -6.15  2.130422  0.0
C  -6.15  4.970986  0.0
C  -7.38  4.260845  0.0
C  -7.38  7.101408  0.0
C  -8.61  6.391267  0.0
C  -8.61  9.231831  0.0
C  -9.84  8.52169  0.0
C  -9.84  11.362253  0.0
C  -11.07  10.652112  0.0
C  -11.07  13.492676  0.0
C  -12.3  12.782535  0.0
C  -12.3  15.623098  0.0
C  -13.53  14.912957  0.0
C  -13.53  17.753521  0.0
C  -14.76  17.04338  0.0
C  -14.76  19.883943  0.0
C  -15.99  19.173802  0.0
C  -15.99  22.014366  0.0
C  -17.22  21.304225  0.0
C  -17.22  24.144788  0.0
C  -18.45  23.434647  0.0
C  -19.68  25.56507  0.0
C  -2.46  0.0  0.0
C  -2.46  2.840563  0.0
C  -3.69  2.130422  0.0
C  -3.69  4.970986  0.0
C  -4.92  4.260845  0.0
C  -4.92  7.101408  0.0
C  -6.15  6.391267  0.0
C  -6.15  9.231831  0.0
C  -7.38  8.52169  0.0
C  -7.38  11.362253  0.0
C  -8.61  10.652112  0.0
C  -8.61  13.492676  0.0
C  -9.84  12.782535  0.0
C  -9.84  15.623098  0.0
C  -11.07  14.912957  0.0
C  -11.07  17.753521  0.0
C  -12.3  17.04338  0.0
C  -12.3  19.883943  0.0
C  -13.53  19.173802  0.0
C  -13.53  22.014366  0.0
C  -14.76  21.304225  0.0
C  -15.99  23.434647  0.0
C  -2.46  4.260845  0.0
C  -3.69  6.391267  0.0
C  -3.69  9.231831  0.0
C  -4.92  8.52169  0.0
C  -4.92  11.362253  0.0
C  -6.15  10.652112  0.0
C  -6.15  13.492676  0.0
C  -7.38  12.782535  0.0
C  -7.38  15.623098  0.0
C  -8.61  14.912957  0.0
C  -8.61  17.753521  0.0
C  -9.84  17.04338  0.0
C  -9.84  19.883943  0.0
C  -11.07  19.173802  0.0
C  -12.3  21.304225  0.0
C  -3.69  10.652112  0.0
C  -3.69  13.492676  0.0
C  -4.92  12.782535  0.0
C  -4.92  15.623098  0.0
C  -6.15  14.912957  0.0
C  -6.15  17.753521  0.0
C  -7.38  17.04338  0.0
C  -8.61  19.173802  0.0
C  -3.69  14.912957  0.0
C  -3.69  17.753521  0.0
C  -4.92  17.04338  0.0
C  -6.15  19.173802  0.0
C  -17.038521  7.113058  3.3
C  -18.530651  9.068857  3.3
C  -11.614424  3.515785  3.3
C  -13.106555  5.471583  3.3
C  -14.598685  7.427382  3.3
C  -15.727866  6.5659  3.3
C  -16.090815  9.38318  3.3
C  -17.219996  8.521699  3.3
C  -17.582945  11.338979  3.3
C  -18.712126  10.477497  3.3
C  -19.075075  13.294777  3.3
C  -7.682458  1.87431  3.3
C  -9.174588  3.830108  3.3
C  -10.303769  2.968627  3.3
C  -10.666718  5.785907  3.3
C  -11.795899  4.924425  3.3
C  -12.158849  7.741705  3.3
C  -13.288029  6.880223  3.3
C  -13.650979  9.697504  3.3
C  -14.78016  8.836022  3.3
C  -15.143109  11.653302  3.3
C  -16.27229  10.79182  3.3
C  -16.635239  13.609101  3.3
C  -17.76442  12.747619  3.3
C  -18.127369  15.564899  3.3
C  -19.25655  14.703417  3.3
C  -19.619499  17.520697  3.3
C  -3.750492  0.232835  3.3
C  -5.242622  2.188633  3.3
C  -6.371803  1.327152  3.3
C  -6.734752  4.144432  3.3
C  -7.863933  3.28295  3.3
C  -8.226882  6.10023  3.3
C  -9.356063  5.238748  3.3
C  -9.719012  8.056029  3.3
C  -10.848193  7.194547  3.3
C  -11.211143  10.011827  3.3
C  -12.340323  9.150345  3.3
C  -12.703273  11.967626  3.3
C  -13.832453  11.106144  3.3
C  -14.195403  13.923424  3.3
C  -15.324584  13.061942  3.3
C  -15.687533  15.879222  3.3
C  -16.816714  15.017741  3.3
C  -17.179663  17.835021  3.3
C  -18.308844  16.973539  3.3
C  -18.671793  19.790819  3.3
C  -19.800974  18.929338  3.3
C  -20.163924  21.746618  3.3
C  -2.439836  -0.314323  3.3
C  -2.802786  2.502957  3.3
C  -3.931966  1.641475  3.3
C  -4.294916  4.458755  3.3
C  -5.424097  3.597273  3.3
C  -5.787046  6.414554  3.3
C  -6.916227  5.553072  3.3
C  -7.279176  8.370352  3.3
C  -8.408357  7.50887  3.3
C  -8.771306  10.326151  3.3
C  -9.900487  9.464669  3.3
C  -10.263436  12.281949  3.3
C  -11.392617  11.420467  3.3
C  -11.755567  14.237747  3.3
C  -12.884747  13.376266  3.3
C  -13.247697  16.193546  3.3
C  -14.376878  15.332064  3.3
C  -14.739827  18.149344  3.3
C  -15.869008  17.287862  3.3
C  -16.231957  20.105143  3.3
C  -17.361138  19.243661  3.3
C  -17.724087  22.060941  3.3
C  -18.853268  21.199459  3.3
C  -19.216218  24.01674  3.3
C  -2.98426  3.911597  3.3
C  -3.34721  6.728877  3.3
C  -4.476391  5.867395  3.3
C  -4.83934  8.684675  3.3
C  -5.968521  7.823194  3.3
C  -6.33147  10.640474  3.3
C  -7.460651  9.778992  3.3
C  -7.8236  12.596272  3.3
C  -8.952781  11.734791  3.3
C  -9.31573  14.552071  3.3
C  -10.444911  13.690589  3.3
C  -10.807861  16.507869  3.3
C  -11.937041  15.646387  3.3
C  -12.299991  18.463668  3.3
C  -13.429172  17.602186  3.3
C  -13.792121  20.419466  3.3
C  -14.921302  19.557984  3.3
C  -15.284251  22.375265  3.3
C  -16.413432  21.513783  3.3
C  -16.776381  24.331063  3.3
C  -17.905562  23.469581  3.3
C  -19.397692  25.42538  3.3
C  -3.528684  8.137517  3.3
C  -3.891634  10.954797  3.3
C  -5.020815  10.093316  3.3
C  -5.383764  12.910596  3.3
C  -6.512945  12.049114  3.3
C  -6.875894  14.866394  3.3
C  -8.005075  14.004912  3.3
C  -8.368024  16.822193  3.3
C  -9.497205  15.960711  3.3
C  -9.860155  18.777991  3.3
C  -10.989335  17.916509  3.3
C  -11.352285  20.733789  3.3
C  -12.481465  19.872308  3.3
C  -13.973596  21.828106  3.3
C  -15.465726  23.783905  3.3
C  -4.073109  12.363437  3.3
C  -4.436058  15.180718  3.3
C  -5.565239  14.319236  3.3
C  -5.928188  17.136516  3.3
C  -7.057369  16.275034  3.3
C  -7.420318  19.092314  3.3
C  -8.549499  18.230833  3.3
C  -10.041629  20.186631  3.3
C  -3.125403  14.633559  3.3
C  -3.488352  17.450839  3.3
C  -4.617533  16.589358  3.3
C  -6.109663  18.545156  3.3

K_POINTS {GAMMA}