Label
1.0
25.254782632000 -5.467820807698 0.000000000000
7.892119572500 -24.605193634640 -0.000000000000
0.000000000000 0.000000000000 25.000000000000
S Mo Se 
134 128 122 
Cartesian
7.892119572500 -26.427800574180 5.310456800000
7.892119572500 -26.427800574180 3.103148650000
6.313695658000 -23.693890170340 5.310456800000
6.313695658000 -23.693890170340 3.103148650000
4.735271743500 -20.959979766490 5.310456800000
4.735271743500 -20.959979766490 3.103148650000
3.156847829000 -18.226069362640 5.310456800000
3.156847829000 -18.226069362640 3.103148650000
11.048967401500 -26.427800574180 5.310456800000
11.048967401500 -26.427800574180 3.103148650000
9.470543487000 -23.693890170340 5.310456800000
9.470543487000 -23.693890170340 3.103148650000
7.892119572500 -20.959979766490 5.310456800000
7.892119572500 -20.959979766490 3.103148650000
6.313695658000 -18.226069362640 5.310456800000
6.313695658000 -18.226069362640 3.103148650000
4.735271743500 -15.492158958790 5.310456800000
4.735271743500 -15.492158958790 3.103148650000
3.156847829000 -12.758248554940 5.310456800000
3.156847829000 -12.758248554940 3.103148650000
1.578423914500 -10.024338151090 5.310456800000
1.578423914500 -10.024338151090 3.103148650000
0.000000000000 -7.290427747240 5.310456800000
0.000000000000 -7.290427747240 3.103148650000
14.205815230500 -26.427800574180 5.310456800000
14.205815230500 -26.427800574180 3.103148650000
12.627391316000 -23.693890170340 5.310456800000
12.627391316000 -23.693890170340 3.103148650000
11.048967401500 -20.959979766490 5.310456800000
11.048967401500 -20.959979766490 3.103148650000
9.470543487000 -18.226069362640 5.310456800000
9.470543487000 -18.226069362640 3.103148650000
7.892119572500 -15.492158958790 5.310456800000
7.892119572500 -15.492158958790 3.103148650000
6.313695658000 -12.758248554940 5.310456800000
6.313695658000 -12.758248554940 3.103148650000
4.735271743500 -10.024338151090 5.310456800000
4.735271743500 -10.024338151090 3.103148650000
3.156847829000 -7.290427747240 5.310456800000
3.156847829000 -7.290427747240 3.103148650000
1.578423914500 -4.556517343390 5.310456800000
1.578423914500 -4.556517343390 3.103148650000
18.941086974000 -29.161710978030 5.310456800000
18.941086974000 -29.161710978030 3.103148650000
17.362663059500 -26.427800574180 5.310456800000
17.362663059500 -26.427800574180 3.103148650000
15.784239145000 -23.693890170340 5.310456800000
15.784239145000 -23.693890170340 3.103148650000
14.205815230500 -20.959979766490 5.310456800000
14.205815230500 -20.959979766490 3.103148650000
12.627391316000 -18.226069362640 5.310456800000
12.627391316000 -18.226069362640 3.103148650000
11.048967401500 -15.492158958790 5.310456800000
11.048967401500 -15.492158958790 3.103148650000
9.470543487000 -12.758248554940 5.310456800000
9.470543487000 -12.758248554940 3.103148650000
7.892119572500 -10.024338151090 5.310456800000
7.892119572500 -10.024338151090 3.103148650000
6.313695658000 -7.290427747240 5.310456800000
6.313695658000 -7.290427747240 3.103148650000
4.735271743500 -4.556517343390 5.310456800000
4.735271743500 -4.556517343390 3.103148650000
22.097934803000 -29.161710978030 5.310456800000
22.097934803000 -29.161710978030 3.103148650000
20.519510888500 -26.427800574180 5.310456800000
20.519510888500 -26.427800574180 3.103148650000
18.941086974000 -23.693890170340 5.310456800000
18.941086974000 -23.693890170340 3.103148650000
17.362663059500 -20.959979766490 5.310456800000
17.362663059500 -20.959979766490 3.103148650000
15.784239145000 -18.226069362640 5.310456800000
15.784239145000 -18.226069362640 3.103148650000
14.205815230500 -15.492158958790 5.310456800000
14.205815230500 -15.492158958790 3.103148650000
12.627391316000 -12.758248554940 5.310456800000
12.627391316000 -12.758248554940 3.103148650000
11.048967401500 -10.024338151090 5.310456800000
11.048967401500 -10.024338151090 3.103148650000
9.470543487000 -7.290427747240 5.310456800000
9.470543487000 -7.290427747240 3.103148650000
7.892119572500 -4.556517343390 5.310456800000
7.892119572500 -4.556517343390 3.103148650000
25.254782632000 -29.161710978030 5.310456800000
25.254782632000 -29.161710978030 3.103148650000
23.676358717500 -26.427800574180 5.310456800000
23.676358717500 -26.427800574180 3.103148650000
22.097934803000 -23.693890170340 5.310456800000
22.097934803000 -23.693890170340 3.103148650000
20.519510888500 -20.959979766490 5.310456800000
20.519510888500 -20.959979766490 3.103148650000
18.941086974000 -18.226069362640 5.310456800000
18.941086974000 -18.226069362640 3.103148650000
17.362663059500 -15.492158958790 5.310456800000
17.362663059500 -15.492158958790 3.103148650000
15.784239145000 -12.758248554940 5.310456800000
15.784239145000 -12.758248554940 3.103148650000
14.205815230500 -10.024338151090 5.310456800000
14.205815230500 -10.024338151090 3.103148650000
12.627391316000 -7.290427747240 5.310456800000
12.627391316000 -7.290427747240 3.103148650000
29.990054375500 -31.895621381880 5.310456800000
29.990054375500 -31.895621381880 3.103148650000
28.411630461000 -29.161710978030 5.310456800000
28.411630461000 -29.161710978030 3.103148650000
26.833206546500 -26.427800574180 5.310456800000
26.833206546500 -26.427800574180 3.103148650000
25.254782632000 -23.693890170340 5.310456800000
25.254782632000 -23.693890170340 3.103148650000
23.676358717500 -20.959979766490 5.310456800000
23.676358717500 -20.959979766490 3.103148650000
22.097934803000 -18.226069362640 5.310456800000
22.097934803000 -18.226069362640 3.103148650000
20.519510888500 -15.492158958790 5.310456800000
20.519510888500 -15.492158958790 3.103148650000
18.941086974000 -12.758248554940 5.310456800000
18.941086974000 -12.758248554940 3.103148650000
17.362663059500 -10.024338151090 5.310456800000
17.362663059500 -10.024338151090 3.103148650000
15.784239145000 -7.290427747240 5.310456800000
15.784239145000 -7.290427747240 3.103148650000
26.833206546500 -20.959979766490 5.310456800000
26.833206546500 -20.959979766490 3.103148650000
25.254782632000 -18.226069362640 5.310456800000
25.254782632000 -18.226069362640 3.103148650000
23.676358717500 -15.492158958790 5.310456800000
23.676358717500 -15.492158958790 3.103148650000
22.097934803000 -12.758248554940 5.310456800000
22.097934803000 -12.758248554940 3.103148650000
20.519510888500 -10.024338151090 5.310456800000
20.519510888500 -10.024338151090 3.103148650000
18.941086974000 -7.290427747240 5.310456800000
18.941086974000 -7.290427747240 3.103148650000
23.676358717500 -10.024338151090 5.310456800000
23.676358717500 -10.024338151090 3.103148650000
9.470543487000 -27.339104038490 4.206802725000
7.892119572500 -24.605193634640 4.206802725000
6.313695658000 -21.871283230790 4.206802725000
4.735271743500 -19.137372826940 4.206802725000
3.156847829000 -16.403462423090 4.206802725000
1.578423914500 -13.669552019240 4.206802725000
12.627391316000 -27.339104038490 4.206802725000
11.048967401500 -24.605193634640 4.206802725000
9.470543487000 -21.871283230790 4.206802725000
7.892119572500 -19.137372826940 4.206802725000
6.313695658000 -16.403462423090 4.206802725000
4.735271743500 -13.669552019240 4.206802725000
3.156847829000 -10.935641615400 4.206802725000
1.578423914500 -8.201731211550 4.206802725000
0.000000000000 -5.467820807700 4.206802725000
-1.578423914500 -2.733910403850 4.206802725000
15.784239145000 -27.339104038490 4.206802725000
14.205815230500 -24.605193634640 4.206802725000
12.627391316000 -21.871283230790 4.206802725000
11.048967401500 -19.137372826940 4.206802725000
9.470543487000 -16.403462423090 4.206802725000
7.892119572500 -13.669552019240 4.206802725000
6.313695658000 -10.935641615400 4.206802725000
4.735271743500 -8.201731211550 4.206802725000
3.156847829000 -5.467820807700 4.206802725000
20.519510888500 -30.073014442340 4.206802725000
18.941086974000 -27.339104038490 4.206802725000
17.362663059500 -24.605193634640 4.206802725000
15.784239145000 -21.871283230790 4.206802725000
14.205815230500 -19.137372826940 4.206802725000
12.627391316000 -16.403462423090 4.206802725000
11.048967401500 -13.669552019240 4.206802725000
9.470543487000 -10.935641615400 4.206802725000
7.892119572500 -8.201731211550 4.206802725000
6.313695658000 -5.467820807700 4.206802725000
23.676358717500 -30.073014442340 4.206802725000
22.097934803000 -27.339104038490 4.206802725000
20.519510888500 -24.605193634640 4.206802725000
18.941086974000 -21.871283230790 4.206802725000
17.362663059500 -19.137372826940 4.206802725000
15.784239145000 -16.403462423090 4.206802725000
14.205815230500 -13.669552019240 4.206802725000
12.627391316000 -10.935641615400 4.206802725000
11.048967401500 -8.201731211550 4.206802725000
9.470543487000 -5.467820807700 4.206802725000
26.833206546500 -30.073014442340 4.206802725000
25.254782632000 -27.339104038490 4.206802725000
23.676358717500 -24.605193634640 4.206802725000
22.097934803000 -21.871283230790 4.206802725000
20.519510888500 -19.137372826940 4.206802725000
18.941086974000 -16.403462423090 4.206802725000
17.362663059500 -13.669552019240 4.206802725000
15.784239145000 -10.935641615400 4.206802725000
14.205815230500 -8.201731211550 4.206802725000
29.990054375500 -30.073014442340 4.206802725000
28.411630461000 -27.339104038490 4.206802725000
26.833206546500 -24.605193634640 4.206802725000
25.254782632000 -21.871283230790 4.206802725000
23.676358717500 -19.137372826940 4.206802725000
22.097934803000 -16.403462423090 4.206802725000
20.519510888500 -13.669552019240 4.206802725000
18.941086974000 -10.935641615400 4.206802725000
17.362663059500 -8.201731211550 4.206802725000
25.254782632000 -16.403462423090 4.206802725000
23.676358717500 -13.669552019240 4.206802725000
22.097934803000 -10.935641615400 4.206802725000
20.519510888500 -8.201731211550 4.206802725000
10.479700807170 -26.666830581440 10.406802725000
7.892120538260 -24.605193334140 10.406802725000
5.304540269350 -22.543556086850 10.406802725000
18.734081721370 -29.580013454330 10.406802725000
16.146501452460 -27.518376207040 10.406802725000
13.558921183550 -25.456738959740 10.406802725000
10.971340914640 -23.395101712450 10.406802725000
8.383760645740 -21.333464465150 10.406802725000
5.796180376830 -19.271827217860 10.406802725000
3.208600107920 -17.210189970560 10.406802725000
24.400882366660 -30.431559079930 10.406802725000
21.813302097750 -28.369921832630 10.406802725000
19.225721828840 -26.308284585340 10.406802725000
16.638141559930 -24.246647338040 10.406802725000
14.050561291020 -22.185010090750 10.406802725000
11.462981022120 -20.123372843450 10.406802725000
8.875400753210 -18.061735596160 10.406802725000
6.287820484300 -16.000098348860 10.406802725000
3.700240215390 -13.938461101570 10.406802725000
1.112659946490 -11.876823854270 10.406802725000
30.067683011940 -31.283104705530 10.406802725000
27.480102743040 -29.221467458230 10.406802725000
24.892522474130 -27.159830210940 10.406802725000
22.304942205220 -25.098192963640 10.406802725000
19.717361936310 -23.036555716350 10.406802725000
17.129781667410 -20.974918469050 10.406802725000
14.542201398500 -18.913281221760 10.406802725000
11.954621129590 -16.851643974460 10.406802725000
9.367040860680 -14.790006727170 10.406802725000
6.779460591780 -12.728369479870 10.406802725000
4.191880322870 -10.666732232580 10.406802725000
1.604300053960 -8.605094985280 10.406802725000
27.971742850510 -25.949738589240 10.406802725000
25.384162581600 -23.888101341940 10.406802725000
22.796582312700 -21.826464094650 10.406802725000
20.209002043790 -19.764826847350 10.406802725000
17.621421774880 -17.703189600060 10.406802725000
15.033841505970 -15.641552352760 10.406802725000
12.446261237060 -13.579915105470 10.406802725000
9.858680968160 -11.518277858170 10.406802725000
7.271100699250 -9.456640610880 10.406802725000
4.683520430340 -7.395003363580 10.406802725000
2.095940161430 -5.333366116290 10.406802725000
-0.491640107470 -3.271728868990 10.406802725000
25.875802689080 -20.616372472950 10.406802725000
23.288222420170 -18.554735225660 10.406802725000
20.700642151260 -16.493097978360 10.406802725000
18.113061882350 -14.431460731070 10.406802725000
15.525481613450 -12.369823483770 10.406802725000
12.937901344540 -10.308186236480 10.406802725000
10.350321075630 -8.246548989180 10.406802725000
7.762740806720 -6.184911741890 10.406802725000
5.175160537820 -4.123274494590 10.406802725000
23.779862527640 -15.283006356660 10.406802725000
21.192282258730 -13.221369109370 10.406802725000
18.604701989830 -11.159731862070 10.406802725000
16.017121720920 -9.098094614780 10.406802725000
13.429541452010 -7.036457367480 10.406802725000
24.271502635120 -12.011277487670 10.406802725000
21.683922366210 -9.949640240380 10.406802725000
19.096342097300 -7.888002993080 10.406802725000
6.701833711010 -26.099133499480 11.510456800000
6.701833711010 -26.099133499480 9.303148650000
12.368634356300 -26.950679125080 11.510456800000
12.368634356300 -26.950679125080 9.303148650000
9.781054087390 -24.889041877790 11.510456800000
9.781054087390 -24.889041877790 9.303148650000
7.193473818480 -22.827404630490 11.510456800000
7.193473818480 -22.827404630490 9.303148650000
4.605893549580 -20.765767383200 11.510456800000
4.605893549580 -20.765767383200 9.303148650000
20.623015270490 -29.863861997980 11.510456800000
20.623015270490 -29.863861997980 9.303148650000
18.035435001590 -27.802224750680 11.510456800000
18.035435001590 -27.802224750680 9.303148650000
15.447854732680 -25.740587503380 11.510456800000
15.447854732680 -25.740587503380 9.303148650000
12.860274463770 -23.678950256090 11.510456800000
12.860274463770 -23.678950256090 9.303148650000
10.272694194860 -21.617313008790 11.510456800000
10.272694194860 -21.617313008790 9.303148650000
7.685113925960 -19.555675761500 11.510456800000
7.685113925960 -19.555675761500 9.303148650000
5.097533657050 -17.494038514200 11.510456800000
5.097533657050 -17.494038514200 9.303148650000
2.509953388140 -15.432401266910 11.510456800000
2.509953388140 -15.432401266910 9.303148650000
26.289815915780 -30.715407623570 11.510456800000
26.289815915780 -30.715407623570 9.303148650000
23.702235646880 -28.653770376280 11.510456800000
23.702235646880 -28.653770376280 9.303148650000
21.114655377970 -26.592133128980 11.510456800000
21.114655377970 -26.592133128980 9.303148650000
18.527075109060 -24.530495881690 11.510456800000
18.527075109060 -24.530495881690 9.303148650000
15.939494840150 -22.468858634390 11.510456800000
15.939494840150 -22.468858634390 9.303148650000
13.351914571250 -20.407221387100 11.510456800000
13.351914571250 -20.407221387100 9.303148650000
10.764334302340 -18.345584139800 11.510456800000
10.764334302340 -18.345584139800 9.303148650000
8.176754033430 -16.283946892510 11.510456800000
8.176754033430 -16.283946892510 9.303148650000
5.589173764520 -14.222309645210 11.510456800000
5.589173764520 -14.222309645210 9.303148650000
3.001593495610 -12.160672397920 11.510456800000
3.001593495610 -12.160672397920 9.303148650000
0.414013226710 -10.099035150620 11.510456800000
0.414013226710 -10.099035150620 9.303148650000
29.369036292160 -29.505316001880 11.510456800000
29.369036292160 -29.505316001880 9.303148650000
26.781456023260 -27.443678754580 11.510456800000
26.781456023260 -27.443678754580 9.303148650000
24.193875754350 -25.382041507290 11.510456800000
24.193875754350 -25.382041507290 9.303148650000
21.606295485440 -23.320404259990 11.510456800000
21.606295485440 -23.320404259990 9.303148650000
19.018715216530 -21.258767012700 11.510456800000
19.018715216530 -21.258767012700 9.303148650000
16.431134947630 -19.197129765400 11.510456800000
16.431134947630 -19.197129765400 9.303148650000
13.843554678720 -17.135492518100 11.510456800000
13.843554678720 -17.135492518100 9.303148650000
11.255974409810 -15.073855270810 11.510456800000
11.255974409810 -15.073855270810 9.303148650000
8.668394140900 -13.012218023510 11.510456800000
8.668394140900 -13.012218023510 9.303148650000
6.080813872000 -10.950580776220 11.510456800000
6.080813872000 -10.950580776220 9.303148650000
3.493233603090 -8.888943528920 11.510456800000
3.493233603090 -8.888943528920 9.303148650000
0.905653334180 -6.827306281630 11.510456800000
0.905653334180 -6.827306281630 9.303148650000
27.273096130730 -24.171949885590 11.510456800000
27.273096130730 -24.171949885590 9.303148650000
24.685515861820 -22.110312638290 11.510456800000
24.685515861820 -22.110312638290 9.303148650000
22.097935592920 -20.048675391000 11.510456800000
22.097935592920 -20.048675391000 9.303148650000
19.510355324010 -17.987038143700 11.510456800000
19.510355324010 -17.987038143700 9.303148650000
16.922775055100 -15.925400896410 11.510456800000
16.922775055100 -15.925400896410 9.303148650000
14.335194786190 -13.863763649110 11.510456800000
14.335194786190 -13.863763649110 9.303148650000
11.747614517290 -11.802126401820 11.510456800000
11.747614517290 -11.802126401820 9.303148650000
9.160034248380 -9.740489154520 11.510456800000
9.160034248380 -9.740489154520 9.303148650000
6.572453979470 -7.678851907230 11.510456800000
6.572453979470 -7.678851907230 9.303148650000
3.984873710560 -5.617214659930 11.510456800000
3.984873710560 -5.617214659930 9.303148650000
1.397293441650 -3.555577412640 11.510456800000
1.397293441650 -3.555577412640 9.303148650000
25.177155969300 -18.838583769300 11.510456800000
25.177155969300 -18.838583769300 9.303148650000
22.589575700390 -16.776946522010 11.510456800000
22.589575700390 -16.776946522010 9.303148650000
20.001995431480 -14.715309274710 11.510456800000
20.001995431480 -14.715309274710 9.303148650000
17.414415162570 -12.653672027420 11.510456800000
17.414415162570 -12.653672027420 9.303148650000
14.826834893670 -10.592034780120 11.510456800000
14.826834893670 -10.592034780120 9.303148650000
12.239254624760 -8.530397532820 11.510456800000
12.239254624760 -8.530397532820 9.303148650000
9.651674355850 -6.468760285530 11.510456800000
9.651674355850 -6.468760285530 9.303148650000
7.064094086940 -4.407123038230 11.510456800000
7.064094086940 -4.407123038230 9.303148650000
23.081215807860 -13.505217653010 11.510456800000
23.081215807860 -13.505217653010 9.303148650000
20.493635538960 -11.443580405720 11.510456800000
20.493635538960 -11.443580405720 9.303148650000
17.906055270050 -9.381943158420 11.510456800000
17.906055270050 -9.381943158420 9.303148650000
15.318475001140 -7.320305911130 11.510456800000
15.318475001140 -7.320305911130 9.303148650000
23.572855915340 -10.233488784020 11.510456800000
23.572855915340 -10.233488784020 9.303148650000
20.985275646430 -8.171851536730 11.510456800000
20.985275646430 -8.171851536730 9.303148650000
