&CONTROL
  calculation  = "scf"
  prefix       = "lego"
  pseudo_dir   = "."
  outdir       = "."
  verbosity="high"
/
&SYSTEM
  ibrav     = 0
  celldm(1) = 4.648726
  nat       = 244
  ntyp      = 1
  vdw_corr = "grimme-d2"
  ecutwfc   = 60
  ecutrho = 600
/
&ELECTRONS
  conv_thr    = 1.D-8
  mixing_beta = 0.3D0
/
&IONS
 ion_dynamics="bfgs"
/

CELL_PARAMETERS {alat}
-0.5	7.794229	0.0
-7.0	3.464102	0.0
0.0	0.0	10.0

ATOMIC_SPECIES
xxxxxxx
xxxxxxx
xxxxxx

ATOMIC_POSITIONS {Angstrom}
C  -17.22  7.101408  0.0
C  -18.45  9.231831  0.0
C  -13.53  4.970986  0.0
C  -14.76  7.101408  0.0
C  -15.99  6.391267  0.0
C  -15.99  9.231831  0.0
C  -17.22  8.52169  0.0
C  -17.22  11.362253  0.0
C  -18.45  10.652112  0.0
C  -18.45  13.492676  0.0
C  -19.68  15.623098  0.0
C  -9.84  2.840563  0.0
C  -11.07  4.970986  0.0
C  -12.3  4.260845  0.0
C  -12.3  7.101408  0.0
C  -13.53  6.391267  0.0
C  -13.53  9.231831  0.0
C  -14.76  8.52169  0.0
C  -14.76  11.362253  0.0
C  -15.99  10.652112  0.0
C  -15.99  13.492676  0.0
C  -17.22  12.782535  0.0
C  -17.22  15.623098  0.0
C  -18.45  14.912957  0.0
C  -18.45  17.753521  0.0
C  -19.68  17.04338  0.0
C  -19.68  19.883943  0.0
C  -6.15  0.710141  0.0
C  -7.38  2.840563  0.0
C  -8.61  2.130422  0.0
C  -8.61  4.970986  0.0
C  -9.84  4.260845  0.0
C  -9.84  7.101408  0.0
C  -11.07  6.391267  0.0
C  -11.07  9.231831  0.0
C  -12.3  8.52169  0.0
C  -12.3  11.362253  0.0
C  -13.53  10.652112  0.0
C  -13.53  13.492676  0.0
C  -14.76  12.782535  0.0
C  -14.76  15.623098  0.0
C  -15.99  14.912957  0.0
C  -15.99  17.753521  0.0
C  -17.22  17.04338  0.0
C  -17.22  19.883943  0.0
C  -18.45  19.173802  0.0
C  -18.45  22.014366  0.0
C  -19.68  21.304225  0.0
C  -19.68  24.144788  0.0
C  -3.69  0.710141  0.0
C  -4.92  2.840563  0.0
C  -6.15  2.130422  0.0
C  -6.15  4.970986  0.0
C  -7.38  4.260845  0.0
C  -7.38  7.101408  0.0
C  -8.61  6.391267  0.0
C  -8.61  9.231831  0.0
C  -9.84  8.52169  0.0
C  -9.84  11.362253  0.0
C  -11.07  10.652112  0.0
C  -11.07  13.492676  0.0
C  -12.3  12.782535  0.0
C  -12.3  15.623098  0.0
C  -13.53  14.912957  0.0
C  -13.53  17.753521  0.0
C  -14.76  17.04338  0.0
C  -14.76  19.883943  0.0
C  -15.99  19.173802  0.0
C  -15.99  22.014366  0.0
C  -17.22  21.304225  0.0
C  -17.22  24.144788  0.0
C  -18.45  23.434647  0.0
C  -19.68  25.56507  0.0
C  -2.46  0.0  0.0
C  -2.46  2.840563  0.0
C  -3.69  2.130422  0.0
C  -3.69  4.970986  0.0
C  -4.92  4.260845  0.0
C  -4.92  7.101408  0.0
C  -6.15  6.391267  0.0
C  -6.15  9.231831  0.0
C  -7.38  8.52169  0.0
C  -7.38  11.362253  0.0
C  -8.61  10.652112  0.0
C  -8.61  13.492676  0.0
C  -9.84  12.782535  0.0
C  -9.84  15.623098  0.0
C  -11.07  14.912957  0.0
C  -11.07  17.753521  0.0
C  -12.3  17.04338  0.0
C  -12.3  19.883943  0.0
C  -13.53  19.173802  0.0
C  -13.53  22.014366  0.0
C  -14.76  21.304225  0.0
C  -15.99  23.434647  0.0
C  -2.46  4.260845  0.0
C  -3.69  6.391267  0.0
C  -3.69  9.231831  0.0
C  -4.92  8.52169  0.0
C  -4.92  11.362253  0.0
C  -6.15  10.652112  0.0
C  -6.15  13.492676  0.0
C  -7.38  12.782535  0.0
C  -7.38  15.623098  0.0
C  -8.61  14.912957  0.0
C  -8.61  17.753521  0.0
C  -9.84  17.04338  0.0
C  -9.84  19.883943  0.0
C  -11.07  19.173802  0.0
C  -12.3  21.304225  0.0
C  -3.69  10.652112  0.0
C  -3.69  13.492676  0.0
C  -4.92  12.782535  0.0
C  -4.92  15.623098  0.0
C  -6.15  14.912957  0.0
C  -6.15  17.753521  0.0
C  -7.38  17.04338  0.0
C  -8.61  19.173802  0.0
C  -3.69  14.912957  0.0
C  -3.69  17.753521  0.0
C  -4.92  17.04338  0.0
C  -6.15  19.173802  0.0
C  -17.038525  7.11305  3.3
C  -18.530656  9.068848  3.3
C  -11.614426  3.515779  3.3
C  -13.106557  5.471577  3.3
C  -14.598689  7.427375  3.3
C  -15.727869  6.565892  3.3
C  -16.09082  9.383172  3.3
C  -17.22  8.52169  3.3
C  -17.582951  11.33897  3.3
C  -18.712131  10.477488  3.3
C  -19.075082  13.294768  3.3
C  -7.682459  1.874306  3.3
C  -9.17459  3.830104  3.3
C  -10.30377  2.968621  3.3
C  -10.666721  5.785901  3.3
C  -11.795902  4.924419  3.3
C  -12.158852  7.741699  3.3
C  -13.288033  6.880217  3.3
C  -13.650984  9.697497  3.3
C  -14.780164  8.836015  3.3
C  -15.143115  11.653295  3.3
C  -16.272295  10.791812  3.3
C  -16.635246  13.609092  3.3
C  -17.764426  12.74761  3.3
C  -18.127377  15.56489  3.3
C  -19.256557  14.703408  3.3
C  -19.619508  17.520688  3.3
C  -3.750492  0.232833  3.3
C  -5.242623  2.188631  3.3
C  -6.371803  1.327148  3.3
C  -6.734754  4.144428  3.3
C  -7.863934  3.282946  3.3
C  -8.226885  6.100226  3.3
C  -9.356066  5.238744  3.3
C  -9.719016  8.056024  3.3
C  -10.848197  7.194541  3.3
C  -11.211148  10.011822  3.3
C  -12.340328  9.150339  3.3
C  -12.703279  11.967619  3.3
C  -13.832459  11.106137  3.3
C  -14.19541  13.923417  3.3
C  -15.32459  13.061935  3.3
C  -15.687541  15.879215  3.3
C  -16.816721  15.017732  3.3
C  -17.179672  17.835012  3.3
C  -18.308852  16.97353  3.3
C  -18.671803  19.79081  3.3
C  -19.800984  18.929328  3.3
C  -20.163934  21.746608  3.3
C  -2.439836  -0.314325  3.3
C  -2.802787  2.502955  3.3
C  -3.931967  1.641473  3.3
C  -4.294918  4.458753  3.3
C  -5.424098  3.597271  3.3
C  -5.787049  6.414551  3.3
C  -6.91623  5.553068  3.3
C  -7.27918  8.370348  3.3
C  -8.408361  7.508866  3.3
C  -8.771311  10.326146  3.3
C  -9.900492  9.464664  3.3
C  -10.263443  12.281944  3.3
C  -11.392623  11.420462  3.3
C  -11.755574  14.237742  3.3
C  -12.884754  13.376259  3.3
C  -13.247705  16.193539  3.3
C  -14.376885  15.332057  3.3
C  -14.739836  18.149337  3.3
C  -15.869016  17.287855  3.3
C  -16.231967  20.105135  3.3
C  -17.361148  19.243652  3.3
C  -17.724098  22.060932  3.3
C  -18.853279  21.19945  3.3
C  -19.216229  24.01673  3.3
C  -2.984262  3.911595  3.3
C  -3.347213  6.728875  3.3
C  -4.476393  5.867393  3.3
C  -4.839344  8.684673  3.3
C  -5.968525  7.823191  3.3
C  -6.331475  10.640471  3.3
C  -7.460656  9.778988  3.3
C  -7.823607  12.596268  3.3
C  -8.952787  11.734786  3.3
C  -9.315738  14.552066  3.3
C  -10.444918  13.690584  3.3
C  -10.807869  16.507864  3.3
C  -11.937049  15.646382  3.3
C  -12.3  18.463662  3.3
C  -13.42918  17.602179  3.3
C  -13.792131  20.419459  3.3
C  -14.921311  19.557977  3.3
C  -15.284262  22.375257  3.3
C  -16.413443  21.513775  3.3
C  -16.776393  24.331055  3.3
C  -17.905574  23.469572  3.3
C  -19.397705  25.42537  3.3
C  -3.528689  8.137515  3.3
C  -3.891639  10.954795  3.3
C  -5.02082  10.093313  3.3
C  -5.38377  12.910593  3.3
C  -6.512951  12.049111  3.3
C  -6.875902  14.866391  3.3
C  -8.005082  14.004908  3.3
C  -8.368033  16.822188  3.3
C  -9.497213  15.960706  3.3
C  -9.860164  18.777986  3.3
C  -10.989344  17.916504  3.3
C  -11.352295  20.733784  3.3
C  -12.481475  19.872302  3.3
C  -13.973607  21.828099  3.3
C  -15.465738  23.783897  3.3
C  -4.073115  12.363435  3.3
C  -4.436066  15.180715  3.3
C  -5.565246  14.319233  3.3
C  -5.928197  17.136513  3.3
C  -7.057377  16.275031  3.3
C  -7.420328  19.092311  3.3
C  -8.549508  18.230828  3.3
C  -10.041639  20.186626  3.3
C  -3.12541  14.633558  3.3
C  -3.488361  17.450838  3.3
C  -4.617541  16.589355  3.3
C  -6.109672  18.545153  3.3

K_POINTS {GAMMA}