&CONTROL
  calculation  = "scf"
  prefix       = "lego"
  pseudo_dir   = "."
  outdir       = "."
  verbosity="high"
/
&SYSTEM
  ibrav     = 0
  celldm(1) = 5.888386
  nat       = 114
  ntyp      = 1
  vdw_corr = "grimme-d2"
  ecutwfc   = 60
  ecutrho = 600
/
&ELECTRONS
  conv_thr    = 1.D-8
  mixing_beta = 0.3D0
/
&IONS
 ion_dynamics="bfgs"
/

CELL_PARAMETERS {alat}
-0.5	4.330127	0.0
-4.0	1.7320508	0.0
0.0	0.0	10.0

ATOMIC_SPECIES
xxxxxxx
xxxxxxx
xxxxxx

ATOMIC_POSITIONS {Angstrom}
S1  -12.464  3.59804685827  4.34440811
S2  -12.464  3.59804685827  7.43463952
S1  -14.022  6.29658200467  4.34440811
S2  -14.022  6.29658200467  7.43463952
S1  -15.58  8.99511715107  4.34440811
S2  -15.58  8.99511715107  7.43463952
S1  -7.79  0.89951171187  4.34440811
S2  -7.79  0.89951171187  7.43463952
S1  -9.348  3.59804685827  4.34440811
S2  -9.348  3.59804685827  7.43463952
Mo  -10.906  2.6985351464  5.889523815
S1  -10.906  6.29658200467  4.34440811
S2  -10.906  6.29658200467  7.43463952
Mo  -12.464  5.3970702928  5.889523815
S1  -12.464  8.99511715107  4.34440811
S2  -12.464  8.99511715107  7.43463952
Mo  -14.022  8.0956054392  5.889523815
S1  -14.022  11.6936522975  4.34440811
S2  -14.022  11.6936522975  7.43463952
Mo  -15.58  10.7941405856  5.889523815
S1  -15.58  14.3921874439  4.34440811
S2  -15.58  14.3921874439  7.43463952
S1  -4.674  0.89951171187  4.34440811
S2  -4.674  0.89951171187  7.43463952
Mo  -6.232  0.0  5.889523815
S1  -6.232  3.59804685827  4.34440811
S2  -6.232  3.59804685827  7.43463952
Mo  -7.79  2.6985351464  5.889523815
S1  -7.79  6.29658200467  4.34440811
S2  -7.79  6.29658200467  7.43463952
Mo  -9.348  5.3970702928  5.889523815
S1  -9.348  8.99511715107  4.34440811
S2  -9.348  8.99511715107  7.43463952
Mo  -10.906  8.0956054392  5.889523815
S1  -10.906  11.6936522975  4.34440811
S2  -10.906  11.6936522975  7.43463952
Mo  -12.464  10.7941405856  5.889523815
S1  -12.464  14.3921874439  4.34440811
S2  -12.464  14.3921874439  7.43463952
Mo  -14.022  13.492675732  5.889523815
Mo  -15.58  16.1912108784  5.889523815
Mo  -3.116  0.0  5.889523815
Mo  -4.674  2.6985351464  5.889523815
S1  -4.674  6.29658200467  4.34440811
S2  -4.674  6.29658200467  7.43463952
Mo  -6.232  5.3970702928  5.889523815
S1  -6.232  8.99511715107  4.34440811
S2  -6.232  8.99511715107  7.43463952
Mo  -7.79  8.0956054392  5.889523815
S1  -7.79  11.6936522975  4.34440811
S2  -7.79  11.6936522975  7.43463952
Mo  -9.348  10.7941405856  5.889523815
Mo  -10.906  13.492675732  5.889523815
Mo  -4.674  8.0956054392  5.889523815
S1  -4.674  11.6936522975  4.34440811
S2  -4.674  11.6936522975  7.43463952
Mo  -6.232  10.7941405856  5.889523815
S1  -9.92199999559  1.37293892133  10.24440811
S2  -9.92199999559  1.37293892133  13.33463952
S1  -12.0539999929  3.64538956939  10.24440811
S2  -12.0539999929  3.64538956939  13.33463952
S1  -14.1859999902  5.91784021744  10.24440811
S2  -14.1859999902  5.91784021744  13.33463952
S1  -4.75599999828  -0.18937089562  10.24440811
S2  -4.75599999828  -0.18937089562  13.33463952
S1  -6.88799999559  2.08307975243  10.24440811
S2  -6.88799999559  2.08307975243  13.33463952
Mo  -8.19999999731  0.85216898585  11.789523815
S1  -9.0199999929  4.35553040048  10.24440811
S2  -9.0199999929  4.35553040048  13.33463952
Mo  -10.3319999946  3.1246196339  11.789523815
S1  -11.1519999902  6.62798104854  10.24440811
S2  -11.1519999902  6.62798104854  13.33463952
Mo  -12.4639999919  5.39707028196  11.789523815
S1  -13.2839999875  8.90043169659  10.24440811
S2  -13.2839999875  8.90043169659  13.33463952
Mo  -14.5959999892  7.66952093001  11.789523815
S1  -15.4159999848  11.1728823446  10.24440811
S2  -15.4159999848  11.1728823446  13.33463952
Mo  -3.034  -0.7101408311  11.789523815
S1  -3.85399999559  2.79322058353  10.24440811
S2  -3.85399999559  2.79322058353  13.33463952
Mo  -5.16599999731  1.56230981695  11.789523815
S1  -5.9859999929  5.06567123158  10.24440811
S2  -5.9859999929  5.06567123158  13.33463952
Mo  -7.29799999462  3.834760465  11.789523815
S1  -8.11799999021  7.33812187963  10.24440811
S2  -8.11799999021  7.33812187963  13.33463952
Mo  -9.42999999193  6.10721111306  11.789523815
S1  -10.2499999875  9.61057252769  10.24440811
S2  -10.2499999875  9.61057252769  13.33463952
Mo  -11.5619999892  8.37966176111  11.789523815
S1  -12.3819999848  11.8830231757  10.24440811
S2  -12.3819999848  11.8830231757  13.33463952
Mo  -13.6939999866  10.6521124092  11.789523815
S1  -14.5139999821  14.1554738238  10.24440811
S2  -14.5139999821  14.1554738238  13.33463952
Mo  -15.8259999839  12.9245630572  11.789523815
Mo  -4.26399999462  4.5449012961  11.789523815
S1  -5.08399999021  8.04826271073  10.24440811
S2  -5.08399999021  8.04826271073  13.33463952
Mo  -6.39599999193  6.81735194415  11.789523815
S1  -7.21599998752  10.3207133588  10.24440811
S2  -7.21599998752  10.3207133588  13.33463952
Mo  -8.52799998924  9.08980259221  11.789523815
S1  -9.34799998483  12.5931640068  10.24440811
S2  -9.34799998483  12.5931640068  13.33463952
Mo  -10.6599999865  11.3622532403  11.789523815
Mo  -12.7919999839  13.6347038883  11.789523815
Mo  -14.9239999812  15.9071545364  11.789523815
S1  -4.18199998752  11.0308541899  10.24440811
S2  -4.18199998752  11.0308541899  13.33463952
Mo  -5.49399998924  9.7999434233  11.789523815
Mo  -7.62599998655  12.0723940714  11.789523815

K_POINTS {GAMMA}