&CONTROL
  calculation  = "scf"
  prefix       = "lego"
  pseudo_dir   = "."
  outdir       = "."
  verbosity="high"
/
&SYSTEM
  ibrav     = 0
  celldm(1) = 4.648726
  nat       = 76
  ntyp      = 1
  vdw_corr = "grimme-d2"
  ecutwfc   = 60
  ecutrho = 600
/
&ELECTRONS
  conv_thr    = 1.D-8
  mixing_beta = 0.3D0
/
&IONS
 ion_dynamics="bfgs"
/

CELL_PARAMETERS {alat}
-0.5	4.330127	0.0
-4.0	1.732051	0.0
0.0	0.0	10.0

ATOMIC_SPECIES
xxxxxxx
xxxxxxx
xxxxxx

ATOMIC_POSITIONS {Angstrom}
C  -9.84  2.840563  0.0
C  -11.07  4.970986  0.0
C  -12.3  7.101408  0.0
C  -6.15  0.710141  0.0
C  -7.38  2.840563  0.0
C  -8.61  2.130422  0.0
C  -8.61  4.970986  0.0
C  -9.84  4.260845  0.0
C  -9.84  7.101408  0.0
C  -11.07  6.391267  0.0
C  -11.07  9.231831  0.0
C  -12.3  8.52169  0.0
C  -12.3  11.362253  0.0
C  -3.69  0.710141  0.0
C  -4.92  0.0  0.0
C  -4.92  2.840563  0.0
C  -6.15  2.130422  0.0
C  -6.15  4.970986  0.0
C  -7.38  4.260845  0.0
C  -7.38  7.101408  0.0
C  -8.61  6.391267  0.0
C  -8.61  9.231831  0.0
C  -9.84  8.52169  0.0
C  -9.84  11.362253  0.0
C  -11.07  10.652112  0.0
C  -12.3  12.782535  0.0
C  -2.46  0.0  0.0
C  -3.69  2.130422  0.0
C  -3.69  4.970986  0.0
C  -4.92  4.260845  0.0
C  -4.92  7.101408  0.0
C  -6.15  6.391267  0.0
C  -6.15  9.231831  0.0
C  -7.38  8.52169  0.0
C  -8.61  10.652112  0.0
C  -3.69  6.391267  0.0
C  -3.69  9.231831  0.0
C  -4.92  8.52169  0.0
C  -7.833158  1.083898  3.3
C  -9.516316  2.877938  3.3
C  -11.199474  4.671977  3.3
C  -3.754737  -0.149504  3.3
C  -5.437895  1.644536  3.3
C  -6.473684  0.672764  3.3
C  -7.121053  3.438575  3.3
C  -8.156842  2.466804  3.3
C  -8.804211  5.232615  3.3
C  -9.840001  4.260843  3.3
C  -10.48737  7.026655  3.3
C  -11.523159  6.054883  3.3
C  -12.170528  8.820695  3.3
C  -2.395263  -0.560638  3.3
C  -3.042632  2.205174  3.3
C  -4.078421  1.233402  3.3
C  -4.72579  3.999213  3.3
C  -5.761579  3.027442  3.3
C  -6.408948  5.793253  3.3
C  -7.444738  4.821481  3.3
C  -8.092106  7.587293  3.3
C  -9.127896  6.615521  3.3
C  -9.775265  9.381333  3.3
C  -10.811054  8.409561  3.3
C  -11.458423  11.175372  3.3
C  -12.494212  10.2036  3.3
C  -3.366316  3.588079  3.3
C  -4.013685  6.353891  3.3
C  -5.049475  5.382119  3.3
C  -5.696843  8.147931  3.3
C  -6.732633  7.176159  3.3
C  -7.380002  9.94197  3.3
C  -8.415791  8.970199  3.3
C  -10.098949  10.764238  3.3
C  -11.782107  12.558278  3.3
C  -3.30158  8.708569  3.3
C  -4.33737  7.736797  3.3
C  -6.020528  9.530836  3.3

K_POINTS {GAMMA}