&CONTROL
  calculation  = "scf",
  prefix       = "2HMoS2mono",
  pseudo_dir   = ".",
  outdir       = ".",
  verbosity = "high"
/
&SYSTEM
  ibrav     = 0,
  celldm(1) = 5.95,
  nat       = 1626
  ntyp      = 2,
  vdw_corr = 'grimme-d2',
  ecutwfc   = 45,
  ecutrho = 450,
/
&ELECTRONS
  conv_thr    = 1.D-8,
  mixing_beta = 0.7D0,
/
&IONS
 ion_dynamics='bfgs',
/
&CELL
 cell_dynamics='bfgs'
 press=0.0,
/
CELL_PARAMETERS {alat}
-0.500000 16.454483 0.000000
-14.500000 7.794229 0.000000
0.0000000 0.000000 11.285726

ATOMIC_SPECIES
Mo 95.94   Mo.pz-spn-rrkjus_psl.0.3.0.UPF
S  32.065  S.pz-n-rrkjus_psl.0.1.UPF

ATOMIC_POSITIONS (angstrom)
S -45.655004 22.723215 7.548172
S -45.655004 22.723215 4.410750
S -47.229315 25.450000 7.548172
S -47.229315 25.450000 4.410750
S -40.932073 19.996429 7.548172
S -40.932073 19.996429 4.410750
S -42.506384 22.723215 7.548172
S -42.506384 22.723215 4.410750
Mo -44.080694 21.814286 5.979461
S -44.080694 25.450000 7.548172
S -44.080694 25.450000 4.410750
Mo -45.655004 24.541072 5.979461
S -45.655005 28.176786 7.548172
S -45.655005 28.176786 4.410750
Mo -47.229315 27.267858 5.979461
S -47.229315 30.903572 7.548172
S -47.229315 30.903572 4.410750
S -36.209142 17.269643 7.548172
S -36.209142 17.269643 4.410750
S -37.783452 19.996429 7.548172
S -37.783452 19.996429 4.410750
Mo -39.357762 19.087500 5.979461
S -39.357763 22.723215 7.548172
S -39.357763 22.723215 4.410750
Mo -40.932073 21.814286 5.979461
S -40.932073 25.450000 7.548172
S -40.932073 25.450000 4.410750
Mo -42.506383 24.541072 5.979461
S -42.506383 28.176786 7.548172
S -42.506383 28.176786 4.410750
Mo -44.080694 27.267858 5.979461
S -44.080694 30.903572 7.548172
S -44.080694 30.903572 4.410750
Mo -45.655004 29.994643 5.979461
S -45.655005 33.630358 7.548172
S -45.655005 33.630358 4.410750
Mo -47.229315 32.721429 5.979461
S -47.229315 36.357143 7.548172
S -47.229315 36.357143 4.410750
S -31.486210 14.542857 7.548172
S -31.486210 14.542857 4.410750
S -33.060521 17.269643 7.548172
S -33.060521 17.269643 4.410750
Mo -34.634831 16.360715 5.979461
S -34.634831 19.996429 7.548172
S -34.634831 19.996429 4.410750
Mo -36.209142 19.087500 5.979461
S -36.209142 22.723215 7.548172
S -36.209142 22.723215 4.410750
Mo -37.783452 21.814286 5.979461
S -37.783452 25.450000 7.548172
S -37.783452 25.450000 4.410750
Mo -39.357763 24.541072 5.979461
S -39.357763 28.176786 7.548172
S -39.357763 28.176786 4.410750
Mo -40.932073 27.267858 5.979461
S -40.932073 30.903572 7.548172
S -40.932073 30.903572 4.410750
Mo -42.506383 29.994643 5.979461
S -42.506384 33.630358 7.548172
S -42.506384 33.630358 4.410750
Mo -44.080694 32.721429 5.979461
S -44.080694 36.357143 7.548172
S -44.080694 36.357143 4.410750
Mo -45.655004 35.448215 5.979461
S -45.655004 39.083929 7.548172
S -45.655004 39.083929 4.410750
Mo -47.229315 38.175001 5.979461
S -47.229315 41.810715 7.548172
S -47.229315 41.810715 4.410750
S -26.763278 11.816072 7.548172
S -26.763278 11.816072 4.410750
S -28.337589 14.542857 7.548172
S -28.337589 14.542857 4.410750
Mo -29.911899 13.633929 5.979461
S -29.911900 17.269643 7.548172
S -29.911900 17.269643 4.410750
Mo -31.486210 16.360715 5.979461
S -31.486210 19.996429 7.548172
S -31.486210 19.996429 4.410750
Mo -33.060521 19.087500 5.979461
S -33.060521 22.723215 7.548172
S -33.060521 22.723215 4.410750
Mo -34.634831 21.814286 5.979461
S -34.634831 25.450000 7.548172
S -34.634831 25.450000 4.410750
Mo -36.209141 24.541072 5.979461
S -36.209142 28.176786 7.548172
S -36.209142 28.176786 4.410750
Mo -37.783452 27.267858 5.979461
S -37.783452 30.903572 7.548172
S -37.783452 30.903572 4.410750
Mo -39.357762 29.994643 5.979461
S -39.357762 33.630358 7.548172
S -39.357762 33.630358 4.410750
Mo -40.932073 32.721429 5.979461
S -40.932073 36.357143 7.548172
S -40.932073 36.357143 4.410750
Mo -42.506383 35.448215 5.979461
S -42.506383 39.083929 7.548172
S -42.506383 39.083929 4.410750
Mo -44.080694 38.175001 5.979461
S -44.080694 41.810715 7.548172
S -44.080694 41.810715 4.410750
Mo -45.655004 40.901786 5.979461
S -45.655005 44.537501 7.548172
S -45.655005 44.537501 4.410750
Mo -47.229315 43.628572 5.979461
S -47.229315 47.264287 7.548172
S -47.229315 47.264287 4.410750
S -22.040347 9.089286 7.548172
S -22.040347 9.089286 4.410750
S -23.614658 11.816072 7.548172
S -23.614658 11.816072 4.410750
Mo -25.188968 10.907143 5.979461
S -25.188968 14.542857 7.548172
S -25.188968 14.542857 4.410750
Mo -26.763278 13.633929 5.979461
S -26.763278 17.269643 7.548172
S -26.763278 17.269643 4.410750
Mo -28.337589 16.360715 5.979461
S -28.337589 19.996429 7.548172
S -28.337589 19.996429 4.410750
Mo -29.911899 19.087500 5.979461
S -29.911900 22.723215 7.548172
S -29.911900 22.723215 4.410750
Mo -31.486210 21.814286 5.979461
S -31.486210 25.450000 7.548172
S -31.486210 25.450000 4.410750
Mo -33.060521 24.541072 5.979461
S -33.060521 28.176786 7.548172
S -33.060521 28.176786 4.410750
Mo -34.634831 27.267858 5.979461
S -34.634831 30.903572 7.548172
S -34.634831 30.903572 4.410750
Mo -36.209142 29.994643 5.979461
S -36.209142 33.630358 7.548172
S -36.209142 33.630358 4.410750
Mo -37.783452 32.721429 5.979461
S -37.783452 36.357143 7.548172
S -37.783452 36.357143 4.410750
Mo -39.357762 35.448215 5.979461
S -39.357763 39.083929 7.548172
S -39.357763 39.083929 4.410750
Mo -40.932073 38.175001 5.979461
S -40.932073 41.810715 7.548172
S -40.932073 41.810715 4.410750
Mo -42.506383 40.901786 5.979461
S -42.506383 44.537501 7.548172
S -42.506383 44.537501 4.410750
Mo -44.080694 43.628572 5.979461
S -44.080694 47.264287 7.548172
S -44.080694 47.264287 4.410750
Mo -45.655004 46.355358 5.979461
S -45.655005 49.991072 7.548172
S -45.655005 49.991072 4.410750
Mo -47.229315 49.082144 5.979461
S -47.229315 52.717858 7.548172
S -47.229315 52.717858 4.410750
S -17.317416 6.362500 7.548172
S -17.317416 6.362500 4.410750
S -18.891726 9.089286 7.548172
S -18.891726 9.089286 4.410750
Mo -20.466037 8.180357 5.979461
S -20.466037 11.816072 7.548172
S -20.466037 11.816072 4.410750
Mo -22.040347 10.907143 5.979461
S -22.040347 14.542857 7.548172
S -22.040347 14.542857 4.410750
Mo -23.614657 13.633929 5.979461
S -23.614657 17.269643 7.548172
S -23.614657 17.269643 4.410750
Mo -25.188968 16.360715 5.979461
S -25.188968 19.996429 7.548172
S -25.188968 19.996429 4.410750
Mo -26.763278 19.087500 5.979461
S -26.763279 22.723215 7.548172
S -26.763279 22.723215 4.410750
Mo -28.337589 21.814286 5.979461
S -28.337589 25.450000 7.548172
S -28.337589 25.450000 4.410750
Mo -29.911900 24.541072 5.979461
S -29.911900 28.176786 7.548172
S -29.911900 28.176786 4.410750
Mo -31.486210 27.267858 5.979461
S -31.486210 30.903572 7.548172
S -31.486210 30.903572 4.410750
Mo -33.060520 29.994643 5.979461
S -33.060521 33.630358 7.548172
S -33.060521 33.630358 4.410750
Mo -34.634831 32.721429 5.979461
S -34.634831 36.357143 7.548172
S -34.634831 36.357143 4.410750
Mo -36.209141 35.448215 5.979461
S -36.209141 39.083929 7.548172
S -36.209141 39.083929 4.410750
Mo -37.783452 38.175001 5.979461
S -37.783452 41.810715 7.548172
S -37.783452 41.810715 4.410750
Mo -39.357762 40.901786 5.979461
S -39.357762 44.537501 7.548172
S -39.357762 44.537501 4.410750
Mo -40.932073 43.628572 5.979461
S -40.932073 47.264287 7.548172
S -40.932073 47.264287 4.410750
Mo -42.506383 46.355358 5.979461
S -42.506384 49.991072 7.548172
S -42.506384 49.991072 4.410750
Mo -44.080694 49.082144 5.979461
S -44.080694 52.717858 7.548172
S -44.080694 52.717858 4.410750
Mo -45.655005 51.808929 5.979461
S -45.655005 55.444644 7.548172
S -45.655005 55.444644 4.410750
Mo -47.229315 54.535715 5.979461
S -47.229315 58.171430 7.548172
S -47.229315 58.171430 4.410750
S -14.168795 6.362500 7.548172
S -14.168795 6.362500 4.410750
Mo -15.743105 5.453572 5.979461
S -15.743105 9.089286 7.548172
S -15.743105 9.089286 4.410750
Mo -17.317416 8.180357 5.979461
S -17.317416 11.816072 7.548172
S -17.317416 11.816072 4.410750
Mo -18.891726 10.907143 5.979461
S -18.891726 14.542857 7.548172
S -18.891726 14.542857 4.410750
Mo -20.466037 13.633929 5.979461
S -20.466037 17.269643 7.548172
S -20.466037 17.269643 4.410750
Mo -22.040347 16.360715 5.979461
S -22.040347 19.996429 7.548172
S -22.040347 19.996429 4.410750
Mo -23.614657 19.087500 5.979461
S -23.614657 22.723215 7.548172
S -23.614657 22.723215 4.410750
Mo -25.188968 21.814286 5.979461
S -25.188968 25.450000 7.548172
S -25.188968 25.450000 4.410750
Mo -26.763278 24.541072 5.979461
S -26.763279 28.176786 7.548172
S -26.763279 28.176786 4.410750
Mo -28.337589 27.267858 5.979461
S -28.337589 30.903572 7.548172
S -28.337589 30.903572 4.410750
Mo -29.911900 29.994643 5.979461
S -29.911900 33.630358 7.548172
S -29.911900 33.630358 4.410750
Mo -31.486210 32.721429 5.979461
S -31.486210 36.357143 7.548172
S -31.486210 36.357143 4.410750
Mo -33.060521 35.448215 5.979461
S -33.060521 39.083929 7.548172
S -33.060521 39.083929 4.410750
Mo -34.634831 38.175001 5.979461
S -34.634831 41.810715 7.548172
S -34.634831 41.810715 4.410750
Mo -36.209142 40.901786 5.979461
S -36.209142 44.537501 7.548172
S -36.209142 44.537501 4.410750
Mo -37.783452 43.628572 5.979461
S -37.783452 47.264287 7.548172
S -37.783452 47.264287 4.410750
Mo -39.357762 46.355358 5.979461
S -39.357762 49.991072 7.548172
S -39.357762 49.991072 4.410750
Mo -40.932073 49.082144 5.979461
S -40.932073 52.717858 7.548172
S -40.932073 52.717858 4.410750
Mo -42.506383 51.808929 5.979461
S -42.506384 55.444644 7.548172
S -42.506384 55.444644 4.410750
Mo -44.080694 54.535715 5.979461
S -44.080694 58.171430 7.548172
S -44.080694 58.171430 4.410750
Mo -45.655005 57.262501 5.979461
S -45.655005 60.898215 7.548172
S -45.655005 60.898215 4.410750
Mo -47.229315 59.989287 5.979461
S -47.229315 63.625001 7.548172
S -47.229315 63.625001 4.410750
S -9.445863 3.635714 7.548172
S -9.445863 3.635714 4.410750
S -11.020173 6.362500 7.548172
S -11.020173 6.362500 4.410750
Mo -12.594484 5.453572 5.979461
S -12.594484 9.089286 7.548172
S -12.594484 9.089286 4.410750
Mo -14.168794 8.180357 5.979461
S -14.168795 11.816072 7.548172
S -14.168795 11.816072 4.410750
Mo -15.743105 10.907143 5.979461
S -15.743105 14.542857 7.548172
S -15.743105 14.542857 4.410750
Mo -17.317416 13.633929 5.979461
S -17.317416 17.269643 7.548172
S -17.317416 17.269643 4.410750
Mo -18.891726 16.360715 5.979461
S -18.891726 19.996429 7.548172
S -18.891726 19.996429 4.410750
Mo -20.466036 19.087500 5.979461
S -20.466037 22.723215 7.548172
S -20.466037 22.723215 4.410750
Mo -22.040347 21.814286 5.979461
S -22.040347 25.450000 7.548172
S -22.040347 25.450000 4.410750
Mo -23.614657 24.541072 5.979461
S -23.614658 28.176786 7.548172
S -23.614658 28.176786 4.410750
Mo -25.188968 27.267858 5.979461
S -25.188968 30.903572 7.548172
S -25.188968 30.903572 4.410750
Mo -26.763279 29.994643 5.979461
S -26.763279 33.630358 7.548172
S -26.763279 33.630358 4.410750
Mo -28.337589 32.721429 5.979461
S -28.337589 36.357143 7.548172
S -28.337589 36.357143 4.410750
Mo -29.911899 35.448215 5.979461
S -29.911900 39.083929 7.548172
S -29.911900 39.083929 4.410750
Mo -31.486210 38.175001 5.979461
S -31.486210 41.810715 7.548172
S -31.486210 41.810715 4.410750
Mo -33.060520 40.901786 5.979461
S -33.060520 44.537501 7.548172
S -33.060520 44.537501 4.410750
Mo -34.634831 43.628572 5.979461
S -34.634831 47.264287 7.548172
S -34.634831 47.264287 4.410750
Mo -36.209141 46.355358 5.979461
S -36.209142 49.991072 7.548172
S -36.209142 49.991072 4.410750
Mo -37.783452 49.082144 5.979461
S -37.783452 52.717858 7.548172
S -37.783452 52.717858 4.410750
Mo -39.357762 51.808929 5.979461
S -39.357763 55.444644 7.548172
S -39.357763 55.444644 4.410750
Mo -40.932073 54.535715 5.979461
S -40.932073 58.171430 7.548172
S -40.932073 58.171430 4.410750
Mo -42.506384 57.262501 5.979461
S -42.506384 60.898215 7.548172
S -42.506384 60.898215 4.410750
Mo -44.080694 59.989287 5.979461
S -44.080694 63.625001 7.548172
S -44.080694 63.625001 4.410750
Mo -45.655004 62.716073 5.979461
S -45.655005 66.351787 7.548172
S -45.655005 66.351787 4.410750
Mo -47.229315 65.442858 5.979461
S -47.229315 69.078573 7.548172
S -47.229315 69.078573 4.410750
S -4.722931 0.908929 7.548172
S -4.722931 0.908929 4.410750
S -6.297242 3.635714 7.548172
S -6.297242 3.635714 4.410750
Mo -7.871552 2.726786 5.979461
S -7.871552 6.362500 7.548172
S -7.871552 6.362500 4.410750
Mo -9.445863 5.453572 5.979461
S -9.445863 9.089286 7.548172
S -9.445863 9.089286 4.410750
Mo -11.020174 8.180357 5.979461
S -11.020174 11.816072 7.548172
S -11.020174 11.816072 4.410750
Mo -12.594484 10.907143 5.979461
S -12.594484 14.542857 7.548172
S -12.594484 14.542857 4.410750
Mo -14.168795 13.633929 5.979461
S -14.168795 17.269643 7.548172
S -14.168795 17.269643 4.410750
Mo -15.743105 16.360715 5.979461
S -15.743105 19.996429 7.548172
S -15.743105 19.996429 4.410750
Mo -17.317416 19.087500 5.979461
S -17.317416 22.723215 7.548172
S -17.317416 22.723215 4.410750
Mo -18.891726 21.814286 5.979461
S -18.891726 25.450000 7.548172
S -18.891726 25.450000 4.410750
Mo -20.466036 24.541072 5.979461
S -20.466036 28.176786 7.548172
S -20.466036 28.176786 4.410750
Mo -22.040347 27.267858 5.979461
S -22.040347 30.903572 7.548172
S -22.040347 30.903572 4.410750
Mo -23.614657 29.994643 5.979461
S -23.614657 33.630358 7.548172
S -23.614657 33.630358 4.410750
Mo -25.188968 32.721429 5.979461
S -25.188968 36.357143 7.548172
S -25.188968 36.357143 4.410750
Mo -26.763279 35.448215 5.979461
S -26.763279 39.083929 7.548172
S -26.763279 39.083929 4.410750
Mo -28.337589 38.175001 5.979461
S -28.337589 41.810715 7.548172
S -28.337589 41.810715 4.410750
Mo -29.911900 40.901786 5.979461
S -29.911900 44.537501 7.548172
S -29.911900 44.537501 4.410750
Mo -31.486210 43.628572 5.979461
S -31.486210 47.264287 7.548172
S -31.486210 47.264287 4.410750
Mo -33.060521 46.355358 5.979461
S -33.060521 49.991072 7.548172
S -33.060521 49.991072 4.410750
Mo -34.634831 49.082144 5.979461
S -34.634831 52.717858 7.548172
S -34.634831 52.717858 4.410750
Mo -36.209141 51.808929 5.979461
S -36.209141 55.444644 7.548172
S -36.209141 55.444644 4.410750
Mo -37.783452 54.535715 5.979461
S -37.783452 58.171430 7.548172
S -37.783452 58.171430 4.410750
Mo -39.357762 57.262501 5.979461
S -39.357762 60.898215 7.548172
S -39.357762 60.898215 4.410750
Mo -40.932073 59.989287 5.979461
S -40.932073 63.625001 7.548172
S -40.932073 63.625001 4.410750
Mo -42.506384 62.716073 5.979461
S -42.506384 66.351787 7.548172
S -42.506384 66.351787 4.410750
Mo -44.080694 65.442858 5.979461
S -44.080694 69.078573 7.548172
S -44.080694 69.078573 4.410750
Mo -45.655004 68.169644 5.979461
S -45.655004 71.805358 7.548172
S -45.655004 71.805358 4.410750
Mo -47.229315 70.896430 5.979461
Mo -3.148621 -0.000000 5.979461
S -3.148621 3.635714 7.548172
S -3.148621 3.635714 4.410750
Mo -4.722932 2.726786 5.979461
S -4.722932 6.362500 7.548172
S -4.722932 6.362500 4.410750
Mo -6.297242 5.453572 5.979461
S -6.297242 9.089286 7.548172
S -6.297242 9.089286 4.410750
Mo -7.871552 8.180357 5.979461
S -7.871552 11.816072 7.548172
S -7.871552 11.816072 4.410750
Mo -9.445863 10.907143 5.979461
S -9.445863 14.542857 7.548172
S -9.445863 14.542857 4.410750
Mo -11.020173 13.633929 5.979461
S -11.020174 17.269643 7.548172
S -11.020174 17.269643 4.410750
Mo -12.594484 16.360715 5.979461
S -12.594484 19.996429 7.548172
S -12.594484 19.996429 4.410750
Mo -14.168795 19.087500 5.979461
S -14.168795 22.723215 7.548172
S -14.168795 22.723215 4.410750
Mo -15.743105 21.814286 5.979461
S -15.743105 25.450000 7.548172
S -15.743105 25.450000 4.410750
Mo -17.317415 24.541072 5.979461
S -17.317416 28.176786 7.548172
S -17.317416 28.176786 4.410750
Mo -18.891726 27.267858 5.979461
S -18.891726 30.903572 7.548172
S -18.891726 30.903572 4.410750
Mo -20.466037 29.994643 5.979461
S -20.466037 33.630358 7.548172
S -20.466037 33.630358 4.410750
Mo -22.040347 32.721429 5.979461
S -22.040347 36.357143 7.548172
S -22.040347 36.357143 4.410750
Mo -23.614658 35.448215 5.979461
S -23.614658 39.083929 7.548172
S -23.614658 39.083929 4.410750
Mo -25.188968 38.175001 5.979461
S -25.188968 41.810715 7.548172
S -25.188968 41.810715 4.410750
Mo -26.763278 40.901786 5.979461
S -26.763279 44.537501 7.548172
S -26.763279 44.537501 4.410750
Mo -28.337589 43.628572 5.979461
S -28.337589 47.264287 7.548172
S -28.337589 47.264287 4.410750
Mo -29.911899 46.355358 5.979461
S -29.911899 49.991072 7.548172
S -29.911899 49.991072 4.410750
Mo -31.486210 49.082144 5.979461
S -31.486210 52.717858 7.548172
S -31.486210 52.717858 4.410750
Mo -33.060520 51.808929 5.979461
S -33.060521 55.444644 7.548172
S -33.060521 55.444644 4.410750
Mo -34.634831 54.535715 5.979461
S -34.634831 58.171430 7.548172
S -34.634831 58.171430 4.410750
Mo -36.209142 57.262501 5.979461
S -36.209142 60.898215 7.548172
S -36.209142 60.898215 4.410750
Mo -37.783452 59.989287 5.979461
S -37.783452 63.625001 7.548172
S -37.783452 63.625001 4.410750
Mo -39.357763 62.716073 5.979461
S -39.357763 66.351787 7.548172
S -39.357763 66.351787 4.410750
Mo -40.932073 65.442858 5.979461
S -40.932073 69.078573 7.548172
S -40.932073 69.078573 4.410750
Mo -42.506383 68.169644 5.979461
Mo -44.080694 70.896430 5.979461
Mo -3.148621 5.453572 5.979461
S -3.148621 9.089286 7.548172
S -3.148621 9.089286 4.410750
Mo -4.722931 8.180357 5.979461
S -4.722931 11.816072 7.548172
S -4.722931 11.816072 4.410750
Mo -6.297242 10.907143 5.979461
S -6.297242 14.542857 7.548172
S -6.297242 14.542857 4.410750
Mo -7.871552 13.633929 5.979461
S -7.871552 17.269643 7.548172
S -7.871552 17.269643 4.410750
Mo -9.445863 16.360715 5.979461
S -9.445863 19.996429 7.548172
S -9.445863 19.996429 4.410750
Mo -11.020174 19.087500 5.979461
S -11.020174 22.723215 7.548172
S -11.020174 22.723215 4.410750
Mo -12.594484 21.814286 5.979461
S -12.594484 25.450000 7.548172
S -12.594484 25.450000 4.410750
Mo -14.168794 24.541072 5.979461
S -14.168794 28.176786 7.548172
S -14.168794 28.176786 4.410750
Mo -15.743105 27.267858 5.979461
S -15.743105 30.903572 7.548172
S -15.743105 30.903572 4.410750
Mo -17.317415 29.994643 5.979461
S -17.317415 33.630358 7.548172
S -17.317415 33.630358 4.410750
Mo -18.891726 32.721429 5.979461
S -18.891726 36.357143 7.548172
S -18.891726 36.357143 4.410750
Mo -20.466036 35.448215 5.979461
S -20.466036 39.083929 7.548172
S -20.466036 39.083929 4.410750
Mo -22.040347 38.175001 5.979461
S -22.040347 41.810715 7.548172
S -22.040347 41.810715 4.410750
Mo -23.614657 40.901786 5.979461
S -23.614657 44.537501 7.548172
S -23.614657 44.537501 4.410750
Mo -25.188968 43.628572 5.979461
S -25.188968 47.264287 7.548172
S -25.188968 47.264287 4.410750
Mo -26.763279 46.355358 5.979461
S -26.763279 49.991072 7.548172
S -26.763279 49.991072 4.410750
Mo -28.337589 49.082144 5.979461
S -28.337589 52.717858 7.548172
S -28.337589 52.717858 4.410750
Mo -29.911899 51.808929 5.979461
S -29.911899 55.444644 7.548172
S -29.911899 55.444644 4.410750
Mo -31.486210 54.535715 5.979461
S -31.486210 58.171430 7.548172
S -31.486210 58.171430 4.410750
Mo -33.060520 57.262501 5.979461
S -33.060520 60.898215 7.548172
S -33.060520 60.898215 4.410750
Mo -34.634831 59.989287 5.979461
S -34.634831 63.625001 7.548172
S -34.634831 63.625001 4.410750
Mo -36.209141 62.716073 5.979461
S -36.209141 66.351787 7.548172
S -36.209141 66.351787 4.410750
Mo -37.783452 65.442858 5.979461
Mo -39.357762 68.169644 5.979461
Mo -3.148621 10.907143 5.979461
S -3.148621 14.542857 7.548172
S -3.148621 14.542857 4.410750
Mo -4.722931 13.633929 5.979461
S -4.722932 17.269643 7.548172
S -4.722932 17.269643 4.410750
Mo -6.297242 16.360715 5.979461
S -6.297242 19.996429 7.548172
S -6.297242 19.996429 4.410750
Mo -7.871552 19.087500 5.979461
S -7.871553 22.723215 7.548172
S -7.871553 22.723215 4.410750
Mo -9.445863 21.814286 5.979461
S -9.445863 25.450000 7.548172
S -9.445863 25.450000 4.410750
Mo -11.020174 24.541072 5.979461
S -11.020174 28.176786 7.548172
S -11.020174 28.176786 4.410750
Mo -12.594484 27.267858 5.979461
S -12.594484 30.903572 7.548172
S -12.594484 30.903572 4.410750
Mo -14.168794 29.994643 5.979461
S -14.168795 33.630358 7.548172
S -14.168795 33.630358 4.410750
Mo -15.743105 32.721429 5.979461
S -15.743105 36.357143 7.548172
S -15.743105 36.357143 4.410750
Mo -17.317416 35.448215 5.979461
S -17.317416 39.083929 7.548172
S -17.317416 39.083929 4.410750
Mo -18.891726 38.175001 5.979461
S -18.891726 41.810715 7.548172
S -18.891726 41.810715 4.410750
Mo -20.466037 40.901786 5.979461
S -20.466037 44.537501 7.548172
S -20.466037 44.537501 4.410750
Mo -22.040347 43.628572 5.979461
S -22.040347 47.264287 7.548172
S -22.040347 47.264287 4.410750
Mo -23.614657 46.355358 5.979461
S -23.614658 49.991072 7.548172
S -23.614658 49.991072 4.410750
Mo -25.188968 49.082144 5.979461
S -25.188968 52.717858 7.548172
S -25.188968 52.717858 4.410750
Mo -26.763278 51.808929 5.979461
S -26.763278 55.444644 7.548172
S -26.763278 55.444644 4.410750
Mo -28.337589 54.535715 5.979461
S -28.337589 58.171430 7.548172
S -28.337589 58.171430 4.410750
Mo -29.911899 57.262501 5.979461
S -29.911900 60.898215 7.548172
S -29.911900 60.898215 4.410750
Mo -31.486210 59.989287 5.979461
S -31.486210 63.625001 7.548172
S -31.486210 63.625001 4.410750
Mo -33.060521 62.716073 5.979461
Mo -34.634831 65.442858 5.979461
Mo -3.148621 16.360715 5.979461
S -3.148621 19.996429 7.548172
S -3.148621 19.996429 4.410750
Mo -4.722932 19.087500 5.979461
S -4.722932 22.723215 7.548172
S -4.722932 22.723215 4.410750
Mo -6.297242 21.814286 5.979461
S -6.297242 25.450000 7.548172
S -6.297242 25.450000 4.410750
Mo -7.871553 24.541072 5.979461
S -7.871553 28.176786 7.548172
S -7.871553 28.176786 4.410750
Mo -9.445863 27.267858 5.979461
S -9.445863 30.903572 7.548172
S -9.445863 30.903572 4.410750
Mo -11.020173 29.994643 5.979461
S -11.020173 33.630358 7.548172
S -11.020173 33.630358 4.410750
Mo -12.594484 32.721429 5.979461
S -12.594484 36.357143 7.548172
S -12.594484 36.357143 4.410750
Mo -14.168794 35.448215 5.979461
S -14.168794 39.083929 7.548172
S -14.168794 39.083929 4.410750
Mo -15.743105 38.175001 5.979461
S -15.743105 41.810715 7.548172
S -15.743105 41.810715 4.410750
Mo -17.317415 40.901786 5.979461
S -17.317415 44.537501 7.548172
S -17.317415 44.537501 4.410750
Mo -18.891726 43.628572 5.979461
S -18.891726 47.264287 7.548172
S -18.891726 47.264287 4.410750
Mo -20.466037 46.355358 5.979461
S -20.466037 49.991072 7.548172
S -20.466037 49.991072 4.410750
Mo -22.040347 49.082144 5.979461
S -22.040347 52.717858 7.548172
S -22.040347 52.717858 4.410750
Mo -23.614658 51.808929 5.979461
S -23.614658 55.444644 7.548172
S -23.614658 55.444644 4.410750
Mo -25.188968 54.535715 5.979461
S -25.188968 58.171430 7.548172
S -25.188968 58.171430 4.410750
Mo -26.763278 57.262501 5.979461
S -26.763278 60.898215 7.548172
S -26.763278 60.898215 4.410750
Mo -28.337589 59.989287 5.979461
Mo -29.911899 62.716073 5.979461
Mo -3.148621 21.814286 5.979461
S -3.148621 25.450000 7.548172
S -3.148621 25.450000 4.410750
Mo -4.722932 24.541072 5.979461
S -4.722932 28.176786 7.548172
S -4.722932 28.176786 4.410750
Mo -6.297242 27.267858 5.979461
S -6.297242 30.903572 7.548172
S -6.297242 30.903572 4.410750
Mo -7.871553 29.994643 5.979461
S -7.871553 33.630358 7.548172
S -7.871553 33.630358 4.410750
Mo -9.445863 32.721429 5.979461
S -9.445863 36.357143 7.548172
S -9.445863 36.357143 4.410750
Mo -11.020173 35.448215 5.979461
S -11.020173 39.083929 7.548172
S -11.020173 39.083929 4.410750
Mo -12.594484 38.175001 5.979461
S -12.594484 41.810715 7.548172
S -12.594484 41.810715 4.410750
Mo -14.168795 40.901786 5.979461
S -14.168795 44.537501 7.548172
S -14.168795 44.537501 4.410750
Mo -15.743105 43.628572 5.979461
S -15.743105 47.264287 7.548172
S -15.743105 47.264287 4.410750
Mo -17.317416 46.355358 5.979461
S -17.317416 49.991072 7.548172
S -17.317416 49.991072 4.410750
Mo -18.891726 49.082144 5.979461
S -18.891726 52.717858 7.548172
S -18.891726 52.717858 4.410750
Mo -20.466037 51.808929 5.979461
S -20.466037 55.444644 7.548172
S -20.466037 55.444644 4.410750
Mo -22.040347 54.535715 5.979461
S -22.040347 58.171430 7.548172
S -22.040347 58.171430 4.410750
Mo -23.614657 57.262501 5.979461
Mo -25.188968 59.989287 5.979461
Mo -3.148621 27.267858 5.979461
S -3.148621 30.903572 7.548172
S -3.148621 30.903572 4.410750
Mo -4.722932 29.994643 5.979461
S -4.722932 33.630358 7.548172
S -4.722932 33.630358 4.410750
Mo -6.297242 32.721429 5.979461
S -6.297242 36.357143 7.548172
S -6.297242 36.357143 4.410750
Mo -7.871553 35.448215 5.979461
S -7.871553 39.083929 7.548172
S -7.871553 39.083929 4.410750
Mo -9.445863 38.175001 5.979461
S -9.445863 41.810715 7.548172
S -9.445863 41.810715 4.410750
Mo -11.020173 40.901786 5.979461
S -11.020173 44.537501 7.548172
S -11.020173 44.537501 4.410750
Mo -12.594484 43.628572 5.979461
S -12.594484 47.264287 7.548172
S -12.594484 47.264287 4.410750
Mo -14.168795 46.355358 5.979461
S -14.168795 49.991072 7.548172
S -14.168795 49.991072 4.410750
Mo -15.743105 49.082144 5.979461
S -15.743105 52.717858 7.548172
S -15.743105 52.717858 4.410750
Mo -17.317416 51.808929 5.979461
S -17.317416 55.444644 7.548172
S -17.317416 55.444644 4.410750
Mo -18.891726 54.535715 5.979461
Mo -20.466037 57.262501 5.979461
Mo -3.148621 32.721429 5.979461
S -3.148621 36.357143 7.548172
S -3.148621 36.357143 4.410750
Mo -4.722932 35.448215 5.979461
S -4.722932 39.083929 7.548172
S -4.722932 39.083929 4.410750
Mo -6.297242 38.175001 5.979461
S -6.297242 41.810715 7.548172
S -6.297242 41.810715 4.410750
Mo -7.871552 40.901786 5.979461
S -7.871552 44.537501 7.548172
S -7.871552 44.537501 4.410750
Mo -9.445863 43.628572 5.979461
S -9.445863 47.264287 7.548172
S -9.445863 47.264287 4.410750
Mo -11.020173 46.355358 5.979461
S -11.020173 49.991072 7.548172
S -11.020173 49.991072 4.410750
Mo -12.594484 49.082144 5.979461
S -12.594484 52.717858 7.548172
S -12.594484 52.717858 4.410750
Mo -14.168795 51.808929 5.979461
S -14.168795 55.444644 7.548172
S -14.168795 55.444644 4.410750
Mo -15.743105 54.535715 5.979461
Mo -3.148621 38.175001 5.979461
S -3.148621 41.810715 7.548172
S -3.148621 41.810715 4.410750
Mo -4.722932 40.901786 5.979461
S -4.722932 44.537501 7.548172
S -4.722932 44.537501 4.410750
Mo -6.297242 43.628572 5.979461
S -6.297242 47.264287 7.548172
S -6.297242 47.264287 4.410750
Mo -7.871552 46.355358 5.979461
S -7.871552 49.991072 7.548172
S -7.871552 49.991072 4.410750
Mo -9.445863 49.082144 5.979461
S -9.445863 52.717858 7.548172
S -9.445863 52.717858 4.410750
Mo -11.020173 51.808929 5.979461
Mo -12.594484 54.535715 5.979461
Mo -3.148621 43.628572 5.979461
S -3.148621 47.264287 7.548172
S -3.148621 47.264287 4.410750
Mo -4.722931 46.355358 5.979461
S -4.722931 49.991072 7.548172
S -4.722931 49.991072 4.410750
Mo -6.297242 49.082144 5.979461
Mo -7.871552 51.808929 5.979461
Mo -3.148621 49.082144 5.979461
S -45.544628 22.726569 13.527632
S -45.544628 22.726569 10.390211
S -47.281598 25.352735 13.527632
S -47.281598 25.352735 10.390211
S -40.664847 20.291579 13.527632
S -40.664847 20.291579 10.390211
S -42.401817 22.917746 13.527632
S -42.401817 22.917746 10.390211
Mo -43.918035 21.914905 11.958922
S -44.138787 25.543912 13.527632
S -44.138787 25.543912 10.390211
Mo -45.655004 24.541072 11.958922
S -45.875757 28.170078 13.527632
S -45.875757 28.170078 10.390211
Mo -47.391974 27.167238 11.958922
S -47.612726 30.796245 13.527632
S -47.612726 30.796245 10.390211
S -34.048095 15.230423 13.527632
S -34.048095 15.230423 10.390211
S -35.785065 17.856590 13.527632
S -35.785065 17.856590 10.390211
S -37.522035 20.482756 13.527632
S -37.522035 20.482756 10.390211
Mo -39.038253 19.479916 11.958922
S -39.259005 23.108922 13.527632
S -39.259005 23.108922 10.390211
Mo -40.775223 22.106082 11.958922
S -40.995975 25.735089 13.527632
S -40.995975 25.735089 10.390211
Mo -42.512193 24.732249 11.958922
S -42.732945 28.361255 13.527632
S -42.732945 28.361255 10.390211
Mo -44.249163 27.358415 11.958922
S -44.469915 30.987421 13.527632
S -44.469915 30.987421 10.390211
Mo -45.986133 29.984581 11.958922
S -46.206885 33.613588 13.527632
S -46.206885 33.613588 10.390211
Mo -47.723102 32.610748 11.958922
S -47.943854 36.239754 13.527632
S -47.943854 36.239754 10.390211
S -29.168314 12.795434 13.527632
S -29.168314 12.795434 10.390211
S -30.905284 15.421600 13.527632
S -30.905284 15.421600 10.390211
Mo -32.421501 14.418760 11.958922
S -32.642253 18.047767 13.527632
S -32.642253 18.047767 10.390211
Mo -34.158471 17.044926 11.958922
S -34.379223 20.673933 13.527632
S -34.379223 20.673933 10.390211
Mo -35.895441 19.671093 11.958922
S -36.116193 23.300099 13.527632
S -36.116193 23.300099 10.390211
Mo -37.632411 22.297259 11.958922
S -37.853163 25.926266 13.527632
S -37.853163 25.926266 10.390211
Mo -39.369381 24.923426 11.958922
S -39.590133 28.552432 13.527632
S -39.590133 28.552432 10.390211
Mo -41.106351 27.549592 11.958922
S -41.327103 31.178598 13.527632
S -41.327103 31.178598 10.390211
Mo -42.843321 30.175758 11.958922
S -43.064073 33.804765 13.527632
S -43.064073 33.804765 10.390211
Mo -44.580291 32.801925 11.958922
S -44.801043 36.430931 13.527632
S -44.801043 36.430931 10.390211
Mo -46.317261 35.428091 11.958922
S -46.538013 39.057097 13.527632
S -46.538013 39.057097 10.390211
S -24.288532 10.360444 13.527632
S -24.288532 10.360444 10.390211
S -26.025502 12.986611 13.527632
S -26.025502 12.986611 10.390211
Mo -27.541720 11.983771 11.958922
S -27.762472 15.612777 13.527632
S -27.762472 15.612777 10.390211
Mo -29.278690 14.609937 11.958922
S -29.499442 18.238943 13.527632
S -29.499442 18.238943 10.390211
Mo -31.015660 17.236103 11.958922
S -31.236412 20.865110 13.527632
S -31.236412 20.865110 10.390211
Mo -32.752630 19.862270 11.958922
S -32.973382 23.491276 13.527632
S -32.973382 23.491276 10.390211
Mo -34.489599 22.488436 11.958922
S -34.710351 26.117442 13.527632
S -34.710351 26.117442 10.390211
Mo -36.226569 25.114602 11.958922
S -36.447321 28.743609 13.527632
S -36.447321 28.743609 10.390211
Mo -37.963539 27.740769 11.958922
S -38.184291 31.369775 13.527632
S -38.184291 31.369775 10.390211