&CONTROL
  calculation  = "scf"
  prefix       = "lego"
  pseudo_dir   = "."
  outdir       = "."
  verbosity="high"
/
&SYSTEM
  ibrav     = 0
  celldm(1) = 4.648726
  nat       = 148
  ntyp      = 1
  vdw_corr = "grimme-d2"
  ecutwfc   = 60
  ecutrho = 600
/
&ELECTRONS
  conv_thr    = 1.D-8
  mixing_beta = 0.3D0
/
&IONS
 ion_dynamics="bfgs"
/

CELL_PARAMETERS {alat}
-0.5	6.062178	0.0
-5.5	2.598076	0.0
0.0	0.0	10.0

ATOMIC_SPECIES
xxxxxxx
xxxxxxx
xxxxxx

ATOMIC_POSITIONS {Angstrom}
C  -13.53  4.970986  0.0
C  -14.76  7.101408  0.0
C  -9.84  2.840563  0.0
C  -11.07  4.970986  0.0
C  -12.3  4.260845  0.0
C  -12.3  7.101408  0.0
C  -13.53  6.391267  0.0
C  -13.53  9.231831  0.0
C  -14.76  8.52169  0.0
C  -14.76  11.362253  0.0
C  -15.99  10.652112  0.0
C  -15.99  13.492676  0.0
C  -6.15  0.710141  0.0
C  -7.38  2.840563  0.0
C  -8.61  2.130422  0.0
C  -8.61  4.970986  0.0
C  -9.84  4.260845  0.0
C  -9.84  7.101408  0.0
C  -11.07  6.391267  0.0
C  -11.07  9.231831  0.0
C  -12.3  8.52169  0.0
C  -12.3  11.362253  0.0
C  -13.53  10.652112  0.0
C  -13.53  13.492676  0.0
C  -14.76  12.782535  0.0
C  -14.76  15.623098  0.0
C  -15.99  14.912957  0.0
C  -15.99  17.753521  0.0
C  -3.69  0.710141  0.0
C  -4.92  0.0  0.0
C  -4.92  2.840563  0.0
C  -6.15  2.130422  0.0
C  -6.15  4.970986  0.0
C  -7.38  4.260845  0.0
C  -7.38  7.101408  0.0
C  -8.61  6.391267  0.0
C  -8.61  9.231831  0.0
C  -9.84  8.52169  0.0
C  -9.84  11.362253  0.0
C  -11.07  10.652112  0.0
C  -11.07  13.492676  0.0
C  -12.3  12.782535  0.0
C  -12.3  15.623098  0.0
C  -13.53  14.912957  0.0
C  -13.53  17.753521  0.0
C  -14.76  17.04338  0.0
C  -15.99  19.173802  0.0
C  -2.46  0.0  0.0
C  -2.46  2.840563  0.0
C  -3.69  2.130422  0.0
C  -3.69  4.970986  0.0
C  -4.92  4.260845  0.0
C  -4.92  7.101408  0.0
C  -6.15  6.391267  0.0
C  -6.15  9.231831  0.0
C  -7.38  8.52169  0.0
C  -7.38  11.362253  0.0
C  -8.61  10.652112  0.0
C  -8.61  13.492676  0.0
C  -9.84  12.782535  0.0
C  -9.84  15.623098  0.0
C  -11.07  14.912957  0.0
C  -12.3  17.04338  0.0
C  -3.69  6.391267  0.0
C  -3.69  9.231831  0.0
C  -4.92  8.52169  0.0
C  -4.92  11.362253  0.0
C  -6.15  10.652112  0.0
C  -6.15  13.492676  0.0
C  -7.38  12.782535  0.0
C  -8.61  14.912957  0.0
C  -3.69  10.652112  0.0
C  -3.69  13.492676  0.0
C  -4.92  12.782535  0.0
C  -13.297297  4.990179  3.3
C  -14.85973  6.890285  3.3
C  -7.745676  1.593019  3.3
C  -9.308108  3.493125  3.3
C  -10.405135  2.591054  3.3
C  -10.870541  5.393232  3.3
C  -11.967568  4.491161  3.3
C  -12.432973  7.293338  3.3
C  -13.53  6.391267  3.3
C  -13.995405  9.193445  3.3
C  -15.092432  8.291374  3.3
C  -15.557838  11.093551  3.3
C  -3.756486  0.095965  3.3
C  -5.318919  1.996072  3.3
C  -6.415946  1.094001  3.3
C  -6.881351  3.896178  3.3
C  -7.978378  2.994107  3.3
C  -8.443784  5.796285  3.3
C  -9.540811  4.894214  3.3
C  -10.006216  7.696391  3.3
C  -11.103243  6.79432  3.3
C  -11.568649  9.596498  3.3
C  -12.665676  8.694427  3.3
C  -13.131081  11.496604  3.3
C  -14.228108  10.594533  3.3
C  -14.693514  13.396711  3.3
C  -15.790541  12.49464  3.3
C  -16.255946  15.296817  3.3
C  -2.426757  -0.403053  3.3
C  -2.892162  2.399124  3.3
C  -3.989189  1.497054  3.3
C  -4.454595  4.299231  3.3
C  -5.551622  3.39716  3.3
C  -6.017027  6.199337  3.3
C  -7.114054  5.297267  3.3
C  -7.579459  8.099444  3.3
C  -8.676486  7.197373  3.3
C  -9.141892  9.999551  3.3
C  -10.238919  9.09748  3.3
C  -10.704324  11.899657  3.3
C  -11.801351  10.997586  3.3
C  -12.266757  13.799764  3.3
C  -13.363784  12.897693  3.3
C  -13.829189  15.69987  3.3
C  -14.926216  14.797799  3.3
C  -15.391622  17.599977  3.3
C  -16.488649  16.697906  3.3
C  -3.124865  3.800213  3.3
C  -3.59027  6.60239  3.3
C  -4.687297  5.70032  3.3
C  -5.152703  8.502497  3.3
C  -6.24973  7.600426  3.3
C  -6.715135  10.402603  3.3
C  -7.812162  9.500533  3.3
C  -8.277568  12.30271  3.3
C  -9.374595  11.400639  3.3
C  -9.84  14.202817  3.3
C  -10.937027  13.300746  3.3
C  -11.402432  16.102923  3.3
C  -12.499459  15.200852  3.3
C  -12.964865  18.00303  3.3
C  -14.061892  17.100959  3.3
C  -15.624324  19.001065  3.3
C  -3.822973  8.003479  3.3
C  -4.288378  10.805656  3.3
C  -5.385405  9.903586  3.3
C  -5.850811  12.705763  3.3
C  -6.947838  11.803692  3.3
C  -7.413243  14.605869  3.3
C  -8.51027  13.703799  3.3
C  -10.072703  15.603905  3.3
C  -3.424054  13.108816  3.3
C  -4.521081  12.206745  3.3
C  -6.083514  14.106852  3.3

K_POINTS {GAMMA}