&CONTROL
  calculation  = "scf"
  prefix       = "lego"
  pseudo_dir   = "."
  outdir       = "."
  verbosity="high"
/
&SYSTEM
  ibrav     = 0
  celldm(1) = 5.888399
  nat       = 546
  ntyp      = 1
  vdw_corr = "grimme-d2"
  ecutwfc   = 60
  ecutrho = 600
/
&ELECTRONS
  conv_thr    = 1.D-8
  mixing_beta = 0.3D0
/
&IONS
 ion_dynamics="bfgs"
/

CELL_PARAMETERS {alat}
-0.5	9.526279	0.0
-8.5	4.330127	0.0
0.0	0.0	10.0

ATOMIC_SPECIES
xxxxxxx
xxxxxxx
xxxxxx

ATOMIC_POSITIONS {Angstrom}
S1  -26.486  11.693652  4.344408
S2  -26.486  11.693652  7.43464
S1  -28.044  14.392187  4.344408
S2  -28.044  14.392187  7.43464
S1  -21.812  8.995117  4.344408
S2  -21.812  8.995117  7.43464
S1  -23.37  11.693652  4.344408
S2  -23.37  11.693652  7.43464
Mo  -24.928  10.794141  5.889524
S1  -24.928  14.392187  4.344408
S2  -24.928  14.392187  7.43464
Mo  -26.486  13.492676  5.889524
S1  -26.486  17.090723  4.344408
S2  -26.486  17.090723  7.43464
Mo  -28.044  16.191211  5.889524
S1  -28.044  19.789258  4.344408
S2  -28.044  19.789258  7.43464
S1  -29.602  22.487793  4.344408
S2  -29.602  22.487793  7.43464
S1  -17.138  6.296582  4.344408
S2  -17.138  6.296582  7.43464
S1  -18.696  8.995117  4.344408
S2  -18.696  8.995117  7.43464
Mo  -20.254  8.095605  5.889524
S1  -20.254  11.693652  4.344408
S2  -20.254  11.693652  7.43464
Mo  -21.812  10.794141  5.889524
S1  -21.812  14.392187  4.344408
S2  -21.812  14.392187  7.43464
Mo  -23.37  13.492676  5.889524
S1  -23.37  17.090723  4.344408
S2  -23.37  17.090723  7.43464
Mo  -24.928  16.191211  5.889524
S1  -24.928  19.789258  4.344408
S2  -24.928  19.789258  7.43464
Mo  -26.486  18.889746  5.889524
S1  -26.486  22.487793  4.344408
S2  -26.486  22.487793  7.43464
Mo  -28.044  21.588281  5.889524
S1  -28.044  25.186328  4.344408
S2  -28.044  25.186328  7.43464
Mo  -29.602  24.286816  5.889524
S1  -29.602  27.884863  4.344408
S2  -29.602  27.884863  7.43464
S1  -12.464  3.598047  4.344408
S2  -12.464  3.598047  7.43464
S1  -14.022  6.296582  4.344408
S2  -14.022  6.296582  7.43464
Mo  -15.58  5.39707  5.889524
S1  -15.58  8.995117  4.344408
S2  -15.58  8.995117  7.43464
Mo  -17.138  8.095605  5.889524
S1  -17.138  11.693652  4.344408
S2  -17.138  11.693652  7.43464
Mo  -18.696  10.794141  5.889524
S1  -18.696  14.392187  4.344408
S2  -18.696  14.392187  7.43464
Mo  -20.254  13.492676  5.889524
S1  -20.254  17.090723  4.344408
S2  -20.254  17.090723  7.43464
Mo  -21.812  16.191211  5.889524
S1  -21.812  19.789258  4.344408
S2  -21.812  19.789258  7.43464
Mo  -23.37  18.889746  5.889524
S1  -23.37  22.487793  4.344408
S2  -23.37  22.487793  7.43464
Mo  -24.928  21.588281  5.889524
S1  -24.928  25.186328  4.344408
S2  -24.928  25.186328  7.43464
Mo  -26.486  24.286816  5.889524
S1  -26.486  27.884863  4.344408
S2  -26.486  27.884863  7.43464
Mo  -28.044  26.985351  5.889524
S1  -28.044  30.583398  4.344408
S2  -28.044  30.583398  7.43464
Mo  -29.602  29.683887  5.889524
S1  -29.602  33.281933  4.344408
S2  -29.602  33.281933  7.43464
S1  -9.348  3.598047  4.344408
S2  -9.348  3.598047  7.43464
Mo  -10.906  2.698535  5.889524
S1  -10.906  6.296582  4.344408
S2  -10.906  6.296582  7.43464
Mo  -12.464  5.39707  5.889524
S1  -12.464  8.995117  4.344408
S2  -12.464  8.995117  7.43464
Mo  -14.022  8.095605  5.889524
S1  -14.022  11.693652  4.344408
S2  -14.022  11.693652  7.43464
Mo  -15.58  10.794141  5.889524
S1  -15.58  14.392187  4.344408
S2  -15.58  14.392187  7.43464
Mo  -17.138  13.492676  5.889524
S1  -17.138  17.090723  4.344408
S2  -17.138  17.090723  7.43464
Mo  -18.696  16.191211  5.889524
S1  -18.696  19.789258  4.344408
S2  -18.696  19.789258  7.43464
Mo  -20.254  18.889746  5.889524
S1  -20.254  22.487793  4.344408
S2  -20.254  22.487793  7.43464
Mo  -21.812  21.588281  5.889524
S1  -21.812  25.186328  4.344408
S2  -21.812  25.186328  7.43464
Mo  -23.37  24.286816  5.889524
S1  -23.37  27.884863  4.344408
S2  -23.37  27.884863  7.43464
Mo  -24.928  26.985351  5.889524
S1  -24.928  30.583398  4.344408
S2  -24.928  30.583398  7.43464
Mo  -26.486  29.683887  5.889524
S1  -26.486  33.281933  4.344408
S2  -26.486  33.281933  7.43464
Mo  -28.044  32.382422  5.889524
S1  -28.044  35.980469  4.344408
S2  -28.044  35.980469  7.43464
Mo  -29.602  35.080957  5.889524
S1  -29.602  38.679004  4.344408
S2  -29.602  38.679004  7.43464
S1  -4.674  0.899512  4.344408
S2  -4.674  0.899512  7.43464
S1  -6.232  3.598047  4.344408
S2  -6.232  3.598047  7.43464
Mo  -7.79  2.698535  5.889524
S1  -7.79  6.296582  4.344408
S2  -7.79  6.296582  7.43464
Mo  -9.348  5.39707  5.889524
S1  -9.348  8.995117  4.344408
S2  -9.348  8.995117  7.43464
Mo  -10.906  8.095605  5.889524
S1  -10.906  11.693652  4.344408
S2  -10.906  11.693652  7.43464
Mo  -12.464  10.794141  5.889524
S1  -12.464  14.392187  4.344408
S2  -12.464  14.392187  7.43464
Mo  -14.022  13.492676  5.889524
S1  -14.022  17.090723  4.344408
S2  -14.022  17.090723  7.43464
Mo  -15.58  16.191211  5.889524
S1  -15.58  19.789258  4.344408
S2  -15.58  19.789258  7.43464
Mo  -17.138  18.889746  5.889524
S1  -17.138  22.487793  4.344408
S2  -17.138  22.487793  7.43464
Mo  -18.696  21.588281  5.889524
S1  -18.696  25.186328  4.344408
S2  -18.696  25.186328  7.43464
Mo  -20.254  24.286816  5.889524
S1  -20.254  27.884863  4.344408
S2  -20.254  27.884863  7.43464
Mo  -21.812  26.985351  5.889524
S1  -21.812  30.583398  4.344408
S2  -21.812  30.583398  7.43464
Mo  -23.37  29.683887  5.889524
S1  -23.37  33.281933  4.344408
S2  -23.37  33.281933  7.43464
Mo  -24.928  32.382422  5.889524
S1  -24.928  35.980469  4.344408
S2  -24.928  35.980469  7.43464
Mo  -26.486  35.080957  5.889524
S1  -26.486  38.679004  4.344408
S2  -26.486  38.679004  7.43464
Mo  -28.044  37.779492  5.889524
Mo  -29.602  40.478027  5.889524
Mo  -3.116  0.0  5.889524
S1  -3.116  3.598047  4.344408
S2  -3.116  3.598047  7.43464
Mo  -4.674  2.698535  5.889524
S1  -4.674  6.296582  4.344408
S2  -4.674  6.296582  7.43464
Mo  -6.232  5.39707  5.889524
S1  -6.232  8.995117  4.344408
S2  -6.232  8.995117  7.43464
Mo  -7.79  8.095605  5.889524
S1  -7.79  11.693652  4.344408
S2  -7.79  11.693652  7.43464
Mo  -9.348  10.794141  5.889524
S1  -9.348  14.392187  4.344408
S2  -9.348  14.392187  7.43464
Mo  -10.906  13.492676  5.889524
S1  -10.906  17.090723  4.344408
S2  -10.906  17.090723  7.43464
Mo  -12.464  16.191211  5.889524
S1  -12.464  19.789258  4.344408
S2  -12.464  19.789258  7.43464
Mo  -14.022  18.889746  5.889524
S1  -14.022  22.487793  4.344408
S2  -14.022  22.487793  7.43464
Mo  -15.58  21.588281  5.889524
S1  -15.58  25.186328  4.344408
S2  -15.58  25.186328  7.43464
Mo  -17.138  24.286816  5.889524
S1  -17.138  27.884863  4.344408
S2  -17.138  27.884863  7.43464
Mo  -18.696  26.985351  5.889524
S1  -18.696  30.583398  4.344408
S2  -18.696  30.583398  7.43464
Mo  -20.254  29.683887  5.889524
S1  -20.254  33.281933  4.344408
S2  -20.254  33.281933  7.43464
Mo  -21.812  32.382422  5.889524
S1  -21.812  35.980469  4.344408
S2  -21.812  35.980469  7.43464
Mo  -23.37  35.080957  5.889524
Mo  -24.928  37.779492  5.889524
Mo  -3.116  5.39707  5.889524
Mo  -4.674  8.095605  5.889524
S1  -4.674  11.693652  4.344408
S2  -4.674  11.693652  7.43464
Mo  -6.232  10.794141  5.889524
S1  -6.232  14.392187  4.344408
S2  -6.232  14.392187  7.43464
Mo  -7.79  13.492676  5.889524
S1  -7.79  17.090723  4.344408
S2  -7.79  17.090723  7.43464
Mo  -9.348  16.191211  5.889524
S1  -9.348  19.789258  4.344408
S2  -9.348  19.789258  7.43464
Mo  -10.906  18.889746  5.889524
S1  -10.906  22.487793  4.344408
S2  -10.906  22.487793  7.43464
Mo  -12.464  21.588281  5.889524
S1  -12.464  25.186328  4.344408
S2  -12.464  25.186328  7.43464
Mo  -14.022  24.286816  5.889524
S1  -14.022  27.884863  4.344408
S2  -14.022  27.884863  7.43464
Mo  -15.58  26.985351  5.889524
S1  -15.58  30.583398  4.344408
S2  -15.58  30.583398  7.43464
Mo  -17.138  29.683887  5.889524
S1  -17.138  33.281933  4.344408
S2  -17.138  33.281933  7.43464
Mo  -18.696  32.382422  5.889524
Mo  -20.254  35.080957  5.889524
Mo  -4.674  13.492676  5.889524
S1  -4.674  17.090723  4.344408
S2  -4.674  17.090723  7.43464
Mo  -6.232  16.191211  5.889524
S1  -6.232  19.789258  4.344408
S2  -6.232  19.789258  7.43464
Mo  -7.79  18.889746  5.889524
S1  -7.79  22.487793  4.344408
S2  -7.79  22.487793  7.43464
Mo  -9.348  21.588281  5.889524
S1  -9.348  25.186328  4.344408
S2  -9.348  25.186328  7.43464
Mo  -10.906  24.286816  5.889524
S1  -10.906  27.884863  4.344408
S2  -10.906  27.884863  7.43464
Mo  -12.464  26.985351  5.889524
S1  -12.464  30.583398  4.344408
S2  -12.464  30.583398  7.43464
Mo  -14.022  29.683887  5.889524
Mo  -15.58  32.382422  5.889524
Mo  -4.674  18.889746  5.889524
S1  -4.674  22.487793  4.344408
S2  -4.674  22.487793  7.43464
Mo  -6.232  21.588281  5.889524
S1  -6.232  25.186328  4.344408
S2  -6.232  25.186328  7.43464
Mo  -7.79  24.286816  5.889524
S1  -7.79  27.884863  4.344408
S2  -7.79  27.884863  7.43464
Mo  -9.348  26.985351  5.889524
S1  -9.348  30.583398  4.344408
S2  -9.348  30.583398  7.43464
Mo  -10.906  29.683887  5.889524
Mo  -4.674  24.286816  5.889524
S1  -4.674  27.884863  4.344408
S2  -4.674  27.884863  7.43464
Mo  -6.232  26.985351  5.889524
Mo  -7.79  29.683887  5.889524
S1  -27.94128  12.434995  10.244408
S2  -27.94128  12.434995  13.33464
S1  -23.010466  10.240584  10.244408
S2  -23.010466  10.240584  13.33464
Mo  -24.654071  10.972055  11.789524
S1  -24.842401  12.761193  10.244408
S2  -24.842401  12.761193  13.33464
Mo  -26.486006  13.492664  11.789524
S1  -26.674337  15.281802  10.244408
S2  -26.674337  15.281802  13.33464
Mo  -28.317941  16.013272  11.789524
S1  -28.506272  17.802411  10.244408
S2  -28.506272  17.802411  13.33464
S1  -16.247717  5.525565  10.244408
S2  -16.247717  5.525565  13.33464
Mo  -17.891322  6.257035  11.789524
S1  -18.079652  8.046173  10.244408
S2  -18.079652  8.046173  13.33464
Mo  -19.723257  8.777644  11.789524
S1  -19.911587  10.566782  10.244408
S2  -19.911587  10.566782  13.33464
Mo  -21.555192  11.298253  11.789524
S1  -21.743522  13.087391  10.244408
S2  -21.743522  13.087391  13.33464
Mo  -23.387127  13.818862  11.789524
S1  -23.575458  15.608  10.244408
S2  -23.575458  15.608  13.33464
Mo  -25.219062  16.33947  11.789524
S1  -25.407393  18.128609  10.244408
S2  -25.407393  18.128609  13.33464
Mo  -27.050998  18.860079  11.789524
S1  -27.239328  20.649218  10.244408
S2  -27.239328  20.649218  13.33464
Mo  -28.882933  21.380688  11.789524
S1  -29.071263  23.169827  10.244408
S2  -29.071263  23.169827  13.33464
S1  -11.316903  3.331154  10.244408
S2  -11.316903  3.331154  13.33464
Mo  -12.960507  4.062624  11.789524
S1  -13.148838  5.851762  10.244408
S2  -13.148838  5.851762  13.33464
Mo  -14.792443  6.583233  11.789524
S1  -14.980773  8.372371  10.244408
S2  -14.980773  8.372371  13.33464
Mo  -16.624378  9.103842  11.789524
S1  -16.812708  10.89298  10.244408
S2  -16.812708  10.89298  13.33464
Mo  -18.456313  11.624451  11.789524
S1  -18.644644  13.413589  10.244408
S2  -18.644644  13.413589  13.33464
Mo  -20.288248  14.14506  11.789524
S1  -20.476579  15.934198  10.244408
S2  -20.476579  15.934198  13.33464
Mo  -22.120183  16.665668  11.789524
S1  -22.308514  18.454807  10.244408
S2  -22.308514  18.454807  13.33464
Mo  -23.952119  19.186277  11.789524
S1  -24.140449  20.975416  10.244408
S2  -24.140449  20.975416  13.33464
Mo  -25.784054  21.706886  11.789524
S1  -25.972384  23.496025  10.244408
S2  -25.972384  23.496025  13.33464
Mo  -27.615989  24.227495  11.789524
S1  -27.80432  26.016634  10.244408
S2  -27.80432  26.016634  13.33464
Mo  -29.447924  26.748104  11.789524
S1  -29.636255  28.537243  10.244408
S2  -29.636255  28.537243  13.33464
S1  -6.386088  1.136743  10.244408
S2  -6.386088  1.136743  13.33464
Mo  -8.029693  1.868213  11.789524
S1  -8.218024  3.657352  10.244408
S2  -8.218024  3.657352  13.33464
Mo  -9.861628  4.388822  11.789524
S1  -10.049959  6.17796  10.244408
S2  -10.049959  6.17796  13.33464
Mo  -11.693564  6.909431  11.789524
S1  -11.881894  8.698569  10.244408
S2  -11.881894  8.698569  13.33464
Mo  -13.525499  9.43004  11.789524
S1  -13.713829  11.219178  10.244408
S2  -13.713829  11.219178  13.33464
Mo  -15.357434  11.950649  11.789524
S1  -15.545765  13.739787  10.244408
S2  -15.545765  13.739787  13.33464
Mo  -17.189369  14.471258  11.789524
S1  -17.3777  16.260396  10.244408
S2  -17.3777  16.260396  13.33464
Mo  -19.021304  16.991866  11.789524
S1  -19.209635  18.781005  10.244408
S2  -19.209635  18.781005  13.33464
Mo  -20.85324  19.512475  11.789524
S1  -21.04157  21.301614  10.244408
S2  -21.04157  21.301614  13.33464
Mo  -22.685175  22.033084  11.789524
S1  -22.873505  23.822223  10.244408
S2  -22.873505  23.822223  13.33464
Mo  -24.51711  24.553693  11.789524
S1  -24.705441  26.342832  10.244408
S2  -24.705441  26.342832  13.33464
Mo  -26.349045  27.074302  11.789524
S1  -26.537376  28.863441  10.244408
S2  -26.537376  28.863441  13.33464
Mo  -28.180981  29.594911  11.789524
S1  -28.369311  31.38405  10.244408
S2  -28.369311  31.38405  13.33464
Mo  -30.012916  32.11552  11.789524
S1  -30.201246  33.904658  10.244408
S2  -30.201246  33.904658  13.33464
Mo  -3.098879  -0.326198  11.789524
S1  -3.287209  1.462941  10.244408
S2  -3.287209  1.462941  13.33464
Mo  -4.930814  2.194411  11.789524
S1  -5.119145  3.98355  10.244408
S2  -5.119145  3.98355  13.33464
Mo  -6.762749  4.71502  11.789524
S1  -6.95108  6.504158  10.244408
S2  -6.95108  6.504158  13.33464
Mo  -8.594685  7.235629  11.789524
S1  -8.783015  9.024767  10.244408
S2  -8.783015  9.024767  13.33464
Mo  -10.42662  9.756238  11.789524
S1  -10.61495  11.545376  10.244408
S2  -10.61495  11.545376  13.33464
Mo  -12.258555  12.276847  11.789524
S1  -12.446886  14.065985  10.244408
S2  -12.446886  14.065985  13.33464
Mo  -14.09049  14.797455  11.789524
S1  -14.278821  16.586594  10.244408
S2  -14.278821  16.586594  13.33464
Mo  -15.922426  17.318064  11.789524
S1  -16.110756  19.107203  10.244408
S2  -16.110756  19.107203  13.33464
Mo  -17.754361  19.838673  11.789524
S1  -17.942691  21.627812  10.244408
S2  -17.942691  21.627812  13.33464
Mo  -19.586296  22.359282  11.789524
S1  -19.774626  24.148421  10.244408
S2  -19.774626  24.148421  13.33464
Mo  -21.418231  24.879891  11.789524
S1  -21.606562  26.66903  10.244408
S2  -21.606562  26.66903  13.33464
Mo  -23.250166  27.4005  11.789524
S1  -23.438497  29.189639  10.244408
S2  -23.438497  29.189639  13.33464
Mo  -25.082102  29.921109  11.789524
S1  -25.270432  31.710248  10.244408
S2  -25.270432  31.710248  13.33464
Mo  -26.914037  32.441718  11.789524
S1  -27.102367  34.230856  10.244408
S2  -27.102367  34.230856  13.33464
Mo  -28.745972  34.962327  11.789524
S1  -28.934303  36.751465  10.244408
S2  -28.934303  36.751465  13.33464
Mo  -3.66387  5.041218  11.789524
S1  -3.852201  6.830356  10.244408
S2  -3.852201  6.830356  13.33464
Mo  -5.495806  7.561827  11.789524
S1  -5.684136  9.350965  10.244408
S2  -5.684136  9.350965  13.33464
Mo  -7.327741  10.082436  11.789524
S1  -7.516071  11.871574  10.244408
S2  -7.516071  11.871574  13.33464
Mo  -9.159676  12.603045  11.789524
S1  -9.348007  14.392183  10.244408
S2  -9.348007  14.392183  13.33464
Mo  -10.991611  15.123653  11.789524
S1  -11.179942  16.912792  10.244408
S2  -11.179942  16.912792  13.33464
Mo  -12.823547  17.644262  11.789524
S1  -13.011877  19.433401  10.244408
S2  -13.011877  19.433401  13.33464
Mo  -14.655482  20.164871  11.789524
S1  -14.843812  21.95401  10.244408
S2  -14.843812  21.95401  13.33464
Mo  -16.487417  22.68548  11.789524
S1  -16.675747  24.474619  10.244408
S2  -16.675747  24.474619  13.33464
Mo  -18.319352  25.206089  11.789524
S1  -18.507683  26.995228  10.244408
S2  -18.507683  26.995228  13.33464
Mo  -20.151287  27.726698  11.789524
S1  -20.339618  29.515837  10.244408
S2  -20.339618  29.515837  13.33464
Mo  -21.983223  30.247307  11.789524
S1  -22.171553  32.036446  10.244408
S2  -22.171553  32.036446  13.33464
Mo  -23.815158  32.767916  11.789524
S1  -24.003488  34.557054  10.244408
S2  -24.003488  34.557054  13.33464
Mo  -25.647093  35.288525  11.789524
S1  -25.835424  37.077663  10.244408
S2  -25.835424  37.077663  13.33464
Mo  -27.479028  37.809134  11.789524
S1  -27.667359  39.598272  10.244408
S2  -27.667359  39.598272  13.33464
Mo  -29.310964  40.329743  11.789524
Mo  -4.228862  10.408634  11.789524
S1  -4.417192  12.197772  10.244408
S2  -4.417192  12.197772  13.33464
Mo  -6.060797  12.929243  11.789524
S1  -6.249128  14.718381  10.244408
S2  -6.249128  14.718381  13.33464
Mo  -7.892732  15.449851  11.789524
S1  -8.081063  17.23899  10.244408
S2  -8.081063  17.23899  13.33464
Mo  -9.724668  17.97046  11.789524
S1  -9.912998  19.759599  10.244408
S2  -9.912998  19.759599  13.33464
Mo  -11.556603  20.491069  11.789524
S1  -11.744933  22.280208  10.244408
S2  -11.744933  22.280208  13.33464
Mo  -13.388538  23.011678  11.789524
S1  -13.576869  24.800817  10.244408
S2  -13.576869  24.800817  13.33464
Mo  -15.220473  25.532287  11.789524
S1  -15.408804  27.321426  10.244408
S2  -15.408804  27.321426  13.33464
Mo  -17.052408  28.052896  11.789524
S1  -17.240739  29.842035  10.244408
S2  -17.240739  29.842035  13.33464
Mo  -18.884344  30.573505  11.789524
S1  -19.072674  32.362644  10.244408
S2  -19.072674  32.362644  13.33464
Mo  -20.716279  33.094114  11.789524
S1  -20.904609  34.883252  10.244408
S2  -20.904609  34.883252  13.33464
Mo  -22.548214  35.614723  11.789524
S1  -22.736545  37.403861  10.244408
S2  -22.736545  37.403861  13.33464
Mo  -24.380149  38.135332  11.789524
Mo  -4.793853  15.776049  11.789524
S1  -4.982184  17.565188  10.244408
S2  -4.982184  17.565188  13.33464
Mo  -6.625789  18.296658  11.789524
S1  -6.814119  20.085797  10.244408
S2  -6.814119  20.085797  13.33464
Mo  -8.457724  20.817267  11.789524
S1  -8.646054  22.606406  10.244408
S2  -8.646054  22.606406  13.33464
Mo  -10.289659  23.337876  11.789524
S1  -10.47799  25.127015  10.244408
S2  -10.47799  25.127015  13.33464
Mo  -12.121594  25.858485  11.789524
S1  -12.309925  27.647624  10.244408
S2  -12.309925  27.647624  13.33464
Mo  -13.953529  28.379094  11.789524
S1  -14.14186  30.168233  10.244408
S2  -14.14186  30.168233  13.33464
Mo  -15.785465  30.899703  11.789524
S1  -15.973795  32.688841  10.244408
S2  -15.973795  32.688841  13.33464
Mo  -17.6174  33.420312  11.789524
Mo  -5.358845  21.143465  11.789524
S1  -5.547175  22.932604  10.244408
S2  -5.547175  22.932604  13.33464
Mo  -7.19078  23.664074  11.789524
S1  -7.379111  25.453213  10.244408
S2  -7.379111  25.453213  13.33464
Mo  -9.022715  26.184683  11.789524
S1  -9.211046  27.973822  10.244408
S2  -9.211046  27.973822  13.33464
Mo  -10.854651  28.705292  11.789524
S1  -11.042981  30.494431  10.244408
S2  -11.042981  30.494431  13.33464
Mo  -12.686586  31.225901  11.789524
Mo  -4.091901  23.990272  11.789524
S1  -4.280232  25.779411  10.244408
S2  -4.280232  25.779411  13.33464
Mo  -5.923836  26.510881  11.789524
S1  -6.112167  28.30002  10.244408
S2  -6.112167  28.30002  13.33464
Mo  -7.755772  29.03149  11.789524

K_POINTS {GAMMA}