Masses_l1:
Mo 95.94
S1 32.066
S2 32.066

Masses_l2:
Mo 95.94
S1 32.066
S2 32.066

FFs:
# potentials
pair_style hybrid/overlay sw/mod sw/mod kolmogorov/crespi/z 14.0 kolmogorov/crespi/z 14.0 kolmogorov/crespi/z 14.0 kolmogorov/crespi/z 14.0 lj/cut 10.0

# Intralayer Interaction
pair_coeff * * sw/mod 1 tmd.sw Mo S S NULL NULL NULL
pair_coeff * * sw/mod 2 tmd.sw NULL NULL NULL Mo S S

# Interlayer Interaction
pair_coeff 1 5 kolmogorov/crespi/z 1 MoS.KC Mo NULL NULL  NULL S NULL
pair_coeff 3 4 kolmogorov/crespi/z 2 MoS.KC NULL NULL S  Mo NULL NULL
pair_coeff 3 5 kolmogorov/crespi/z 3 MoS.KC NULL NULL S  NULL S NULL
pair_coeff 1 4 kolmogorov/crespi/z 4 MoS.KC Mo NULL NULL  Mo NULL NULL
pair_coeff * * lj/cut 0.0 3.0
