&CONTROL
  calculation  = "scf"
  prefix       = "lego"
  pseudo_dir   = "."
  outdir       = "."
  verbosity="high"
/
&SYSTEM
  ibrav     = 0
  celldm(1) = 5.888386
  nat       = 546
  ntyp      = 1
  vdw_corr = "grimme-d2"
  ecutwfc   = 60
  ecutrho = 600
/
&ELECTRONS
  conv_thr    = 1.D-8
  mixing_beta = 0.3D0
/
&IONS
 ion_dynamics="bfgs"
/

CELL_PARAMETERS {alat}
-0.5	9.526279	0.0
-8.5	4.330127	0.0
0.0	0.0	10.0

ATOMIC_SPECIES
xxxxxxx
xxxxxxx
xxxxxx

ATOMIC_POSITIONS {Angstrom}
S1  -26.486  11.693652  4.344408
S2  -26.486  11.693652  7.43464
S1  -28.044  14.392187  4.344408
S2  -28.044  14.392187  7.43464
S1  -21.812  8.995117  4.344408
S2  -21.812  8.995117  7.43464
S1  -23.37  11.693652  4.344408
S2  -23.37  11.693652  7.43464
Mo  -24.928  10.794141  5.889524
S1  -24.928  14.392187  4.344408
S2  -24.928  14.392187  7.43464
Mo  -26.486  13.492676  5.889524
S1  -26.486  17.090723  4.344408
S2  -26.486  17.090723  7.43464
Mo  -28.044  16.191211  5.889524
S1  -28.044  19.789258  4.344408
S2  -28.044  19.789258  7.43464
S1  -29.602  22.487793  4.344408
S2  -29.602  22.487793  7.43464
S1  -17.138  6.296582  4.344408
S2  -17.138  6.296582  7.43464
S1  -18.696  8.995117  4.344408
S2  -18.696  8.995117  7.43464
Mo  -20.254  8.095605  5.889524
S1  -20.254  11.693652  4.344408
S2  -20.254  11.693652  7.43464
Mo  -21.812  10.794141  5.889524
S1  -21.812  14.392187  4.344408
S2  -21.812  14.392187  7.43464
Mo  -23.37  13.492676  5.889524
S1  -23.37  17.090723  4.344408
S2  -23.37  17.090723  7.43464
Mo  -24.928  16.191211  5.889524
S1  -24.928  19.789258  4.344408
S2  -24.928  19.789258  7.43464
Mo  -26.486  18.889746  5.889524
S1  -26.486  22.487793  4.344408
S2  -26.486  22.487793  7.43464
Mo  -28.044  21.588281  5.889524
S1  -28.044  25.186328  4.344408
S2  -28.044  25.186328  7.43464
Mo  -29.602  24.286816  5.889524
S1  -29.602  27.884863  4.344408
S2  -29.602  27.884863  7.43464
S1  -12.464  3.598047  4.344408
S2  -12.464  3.598047  7.43464
S1  -14.022  6.296582  4.344408
S2  -14.022  6.296582  7.43464
Mo  -15.58  5.39707  5.889524
S1  -15.58  8.995117  4.344408
S2  -15.58  8.995117  7.43464
Mo  -17.138  8.095605  5.889524
S1  -17.138  11.693652  4.344408
S2  -17.138  11.693652  7.43464
Mo  -18.696  10.794141  5.889524
S1  -18.696  14.392187  4.344408
S2  -18.696  14.392187  7.43464
Mo  -20.254  13.492676  5.889524
S1  -20.254  17.090723  4.344408
S2  -20.254  17.090723  7.43464
Mo  -21.812  16.191211  5.889524
S1  -21.812  19.789258  4.344408
S2  -21.812  19.789258  7.43464
Mo  -23.37  18.889746  5.889524
S1  -23.37  22.487793  4.344408
S2  -23.37  22.487793  7.43464
Mo  -24.928  21.588281  5.889524
S1  -24.928  25.186328  4.344408
S2  -24.928  25.186328  7.43464
Mo  -26.486  24.286816  5.889524
S1  -26.486  27.884863  4.344408
S2  -26.486  27.884863  7.43464
Mo  -28.044  26.985351  5.889524
S1  -28.044  30.583398  4.344408
S2  -28.044  30.583398  7.43464
Mo  -29.602  29.683887  5.889524
S1  -29.602  33.281933  4.344408
S2  -29.602  33.281933  7.43464
S1  -9.348  3.598047  4.344408
S2  -9.348  3.598047  7.43464
Mo  -10.906  2.698535  5.889524
S1  -10.906  6.296582  4.344408
S2  -10.906  6.296582  7.43464
Mo  -12.464  5.39707  5.889524
S1  -12.464  8.995117  4.344408
S2  -12.464  8.995117  7.43464
Mo  -14.022  8.095605  5.889524
S1  -14.022  11.693652  4.344408
S2  -14.022  11.693652  7.43464
Mo  -15.58  10.794141  5.889524
S1  -15.58  14.392187  4.344408
S2  -15.58  14.392187  7.43464
Mo  -17.138  13.492676  5.889524
S1  -17.138  17.090723  4.344408
S2  -17.138  17.090723  7.43464
Mo  -18.696  16.191211  5.889524
S1  -18.696  19.789258  4.344408
S2  -18.696  19.789258  7.43464
Mo  -20.254  18.889746  5.889524
S1  -20.254  22.487793  4.344408
S2  -20.254  22.487793  7.43464
Mo  -21.812  21.588281  5.889524
S1  -21.812  25.186328  4.344408
S2  -21.812  25.186328  7.43464
Mo  -23.37  24.286816  5.889524
S1  -23.37  27.884863  4.344408
S2  -23.37  27.884863  7.43464
Mo  -24.928  26.985351  5.889524
S1  -24.928  30.583398  4.344408
S2  -24.928  30.583398  7.43464
Mo  -26.486  29.683887  5.889524
S1  -26.486  33.281933  4.344408
S2  -26.486  33.281933  7.43464
Mo  -28.044  32.382422  5.889524
S1  -28.044  35.980469  4.344408
S2  -28.044  35.980469  7.43464
Mo  -29.602  35.080957  5.889524
S1  -29.602  38.679004  4.344408
S2  -29.602  38.679004  7.43464
S1  -4.674  0.899512  4.344408
S2  -4.674  0.899512  7.43464
S1  -6.232  3.598047  4.344408
S2  -6.232  3.598047  7.43464
Mo  -7.79  2.698535  5.889524
S1  -7.79  6.296582  4.344408
S2  -7.79  6.296582  7.43464
Mo  -9.348  5.39707  5.889524
S1  -9.348  8.995117  4.344408
S2  -9.348  8.995117  7.43464
Mo  -10.906  8.095605  5.889524
S1  -10.906  11.693652  4.344408
S2  -10.906  11.693652  7.43464
Mo  -12.464  10.794141  5.889524
S1  -12.464  14.392187  4.344408
S2  -12.464  14.392187  7.43464
Mo  -14.022  13.492676  5.889524
S1  -14.022  17.090723  4.344408
S2  -14.022  17.090723  7.43464
Mo  -15.58  16.191211  5.889524
S1  -15.58  19.789258  4.344408
S2  -15.58  19.789258  7.43464
Mo  -17.138  18.889746  5.889524
S1  -17.138  22.487793  4.344408
S2  -17.138  22.487793  7.43464
Mo  -18.696  21.588281  5.889524
S1  -18.696  25.186328  4.344408
S2  -18.696  25.186328  7.43464
Mo  -20.254  24.286816  5.889524
S1  -20.254  27.884863  4.344408
S2  -20.254  27.884863  7.43464
Mo  -21.812  26.985351  5.889524
S1  -21.812  30.583398  4.344408
S2  -21.812  30.583398  7.43464
Mo  -23.37  29.683887  5.889524
S1  -23.37  33.281933  4.344408
S2  -23.37  33.281933  7.43464
Mo  -24.928  32.382422  5.889524
S1  -24.928  35.980469  4.344408
S2  -24.928  35.980469  7.43464
Mo  -26.486  35.080957  5.889524
S1  -26.486  38.679004  4.344408
S2  -26.486  38.679004  7.43464
Mo  -28.044  37.779492  5.889524
Mo  -29.602  40.478027  5.889524
Mo  -3.116  0.0  5.889524
S1  -3.116  3.598047  4.344408
S2  -3.116  3.598047  7.43464
Mo  -4.674  2.698535  5.889524
S1  -4.674  6.296582  4.344408
S2  -4.674  6.296582  7.43464
Mo  -6.232  5.39707  5.889524
S1  -6.232  8.995117  4.344408
S2  -6.232  8.995117  7.43464
Mo  -7.79  8.095605  5.889524
S1  -7.79  11.693652  4.344408
S2  -7.79  11.693652  7.43464
Mo  -9.348  10.794141  5.889524
S1  -9.348  14.392187  4.344408
S2  -9.348  14.392187  7.43464
Mo  -10.906  13.492676  5.889524
S1  -10.906  17.090723  4.344408
S2  -10.906  17.090723  7.43464
Mo  -12.464  16.191211  5.889524
S1  -12.464  19.789258  4.344408
S2  -12.464  19.789258  7.43464
Mo  -14.022  18.889746  5.889524
S1  -14.022  22.487793  4.344408
S2  -14.022  22.487793  7.43464
Mo  -15.58  21.588281  5.889524
S1  -15.58  25.186328  4.344408
S2  -15.58  25.186328  7.43464
Mo  -17.138  24.286816  5.889524
S1  -17.138  27.884863  4.344408
S2  -17.138  27.884863  7.43464
Mo  -18.696  26.985351  5.889524
S1  -18.696  30.583398  4.344408
S2  -18.696  30.583398  7.43464
Mo  -20.254  29.683887  5.889524
S1  -20.254  33.281933  4.344408
S2  -20.254  33.281933  7.43464
Mo  -21.812  32.382422  5.889524
S1  -21.812  35.980469  4.344408
S2  -21.812  35.980469  7.43464
Mo  -23.37  35.080957  5.889524
Mo  -24.928  37.779492  5.889524
Mo  -3.116  5.39707  5.889524
Mo  -4.674  8.095605  5.889524
S1  -4.674  11.693652  4.344408
S2  -4.674  11.693652  7.43464
Mo  -6.232  10.794141  5.889524
S1  -6.232  14.392187  4.344408
S2  -6.232  14.392187  7.43464
Mo  -7.79  13.492676  5.889524
S1  -7.79  17.090723  4.344408
S2  -7.79  17.090723  7.43464
Mo  -9.348  16.191211  5.889524
S1  -9.348  19.789258  4.344408
S2  -9.348  19.789258  7.43464
Mo  -10.906  18.889746  5.889524
S1  -10.906  22.487793  4.344408
S2  -10.906  22.487793  7.43464
Mo  -12.464  21.588281  5.889524
S1  -12.464  25.186328  4.344408
S2  -12.464  25.186328  7.43464
Mo  -14.022  24.286816  5.889524
S1  -14.022  27.884863  4.344408
S2  -14.022  27.884863  7.43464
Mo  -15.58  26.985351  5.889524
S1  -15.58  30.583398  4.344408
S2  -15.58  30.583398  7.43464
Mo  -17.138  29.683887  5.889524
S1  -17.138  33.281933  4.344408
S2  -17.138  33.281933  7.43464
Mo  -18.696  32.382422  5.889524
Mo  -20.254  35.080957  5.889524
Mo  -4.674  13.492676  5.889524
S1  -4.674  17.090723  4.344408
S2  -4.674  17.090723  7.43464
Mo  -6.232  16.191211  5.889524
S1  -6.232  19.789258  4.344408
S2  -6.232  19.789258  7.43464
Mo  -7.79  18.889746  5.889524
S1  -7.79  22.487793  4.344408
S2  -7.79  22.487793  7.43464
Mo  -9.348  21.588281  5.889524
S1  -9.348  25.186328  4.344408
S2  -9.348  25.186328  7.43464
Mo  -10.906  24.286816  5.889524
S1  -10.906  27.884863  4.344408
S2  -10.906  27.884863  7.43464
Mo  -12.464  26.985351  5.889524
S1  -12.464  30.583398  4.344408
S2  -12.464  30.583398  7.43464
Mo  -14.022  29.683887  5.889524
Mo  -15.58  32.382422  5.889524
Mo  -4.674  18.889746  5.889524
S1  -4.674  22.487793  4.344408
S2  -4.674  22.487793  7.43464
Mo  -6.232  21.588281  5.889524
S1  -6.232  25.186328  4.344408
S2  -6.232  25.186328  7.43464
Mo  -7.79  24.286816  5.889524
S1  -7.79  27.884863  4.344408
S2  -7.79  27.884863  7.43464
Mo  -9.348  26.985351  5.889524
S1  -9.348  30.583398  4.344408
S2  -9.348  30.583398  7.43464
Mo  -10.906  29.683887  5.889524
Mo  -4.674  24.286816  5.889524
S1  -4.674  27.884863  4.344408
S2  -4.674  27.884863  7.43464
Mo  -6.232  26.985351  5.889524
Mo  -7.79  29.683887  5.889524
S1  -26.29767  11.703537  10.244408
S2  -26.29767  11.703537  13.33464
S1  -28.129604  14.224147  10.244408
S2  -28.129604  14.224147  13.33464
S1  -19.534923  6.988514  10.244408
S2  -19.534923  6.988514  13.33464
S1  -21.366857  9.509124  10.244408
S2  -21.366857  9.509124  13.33464
S1  -23.198791  12.029734  10.244408
S2  -23.198791  12.029734  13.33464
Mo  -24.654066  10.972066  11.789524
S1  -25.030725  14.550343  10.244408
S2  -25.030725  14.550343  13.33464
Mo  -26.486  13.492676  11.789524
S1  -26.862659  17.070953  10.244408
S2  -26.862659  17.070953  13.33464
Mo  -28.317934  16.013285  11.789524
S1  -28.694593  19.591563  10.244408
S2  -28.694593  19.591563  13.33464
S1  -14.60411  4.794101  10.244408
S2  -14.60411  4.794101  13.33464
S1  -16.436044  7.314711  10.244408
S2  -16.436044  7.314711  13.33464
Mo  -17.891319  6.257043  11.789524
S1  -18.267978  9.83532  10.244408
S2  -18.267978  9.83532  13.33464
Mo  -19.723253  8.777653  11.789524
S1  -20.099912  12.35593  10.244408
S2  -20.099912  12.35593  13.33464
Mo  -21.555187  11.298263  11.789524
S1  -21.931846  14.87654  10.244408
S2  -21.931846  14.87654  13.33464
Mo  -23.387121  13.818872  11.789524
S1  -23.76378  17.39715  10.244408
S2  -23.76378  17.39715  13.33464
Mo  -25.219055  16.339482  11.789524
S1  -25.595714  19.917759  10.244408
S2  -25.595714  19.917759  13.33464
Mo  -27.050989  18.860092  11.789524
S1  -27.427648  22.438369  10.244408
S2  -27.427648  22.438369  13.33464
Mo  -28.882923  21.380702  11.789524
S1  -29.259582  24.958979  10.244408
S2  -29.259582  24.958979  13.33464
S1  -9.673297  2.599688  10.244408
S2  -9.673297  2.599688  13.33464
S1  -11.505231  5.120297  10.244408
S2  -11.505231  5.120297  13.33464
Mo  -12.960505  4.06263  11.789524
S1  -13.337165  7.640907  10.244408
S2  -13.337165  7.640907  13.33464
Mo  -14.79244  6.58324  11.789524
S1  -15.169099  10.161517  10.244408
S2  -15.169099  10.161517  13.33464
Mo  -16.624374  9.103849  11.789524
S1  -17.001033  12.682127  10.244408
S2  -17.001033  12.682127  13.33464
Mo  -18.456308  11.624459  11.789524
S1  -18.832967  15.202736  10.244408
S2  -18.832967  15.202736  13.33464
Mo  -20.288242  14.145069  11.789524
S1  -20.664901  17.723346  10.244408
S2  -20.664901  17.723346  13.33464
Mo  -22.120176  16.665679  11.789524
S1  -22.496835  20.243956  10.244408
S2  -22.496835  20.243956  13.33464
Mo  -23.95211  19.186288  11.789524
S1  -24.328769  22.764566  10.244408
S2  -24.328769  22.764566  13.33464
Mo  -25.784044  21.706898  11.789524
S1  -26.160703  25.285175  10.244408
S2  -26.160703  25.285175  13.33464
Mo  -27.615978  24.227508  11.789524
S1  -27.992637  27.805785  10.244408
S2  -27.992637  27.805785  13.33464
Mo  -29.447912  26.748118  11.789524
S1  -29.824571  30.326395  10.244408
S2  -29.824571  30.326395  13.33464
S1  -4.742484  0.405275  10.244408
S2  -4.742484  0.405275  13.33464
S1  -6.574418  2.925884  10.244408
S2  -6.574418  2.925884  13.33464
Mo  -8.029692  1.868217  11.789524
S1  -8.406352  5.446494  10.244408
S2  -8.406352  5.446494  13.33464
Mo  -9.861626  4.388826  11.789524
S1  -10.238286  7.967104  10.244408
S2  -10.238286  7.967104  13.33464
Mo  -11.69356  6.909436  11.789524
S1  -12.07022  10.487714  10.244408
S2  -12.07022  10.487714  13.33464
Mo  -13.525495  9.430046  11.789524
S1  -13.902154  13.008323  10.244408
S2  -13.902154  13.008323  13.33464
Mo  -15.357429  11.950656  11.789524
S1  -15.734088  15.528933  10.244408
S2  -15.734088  15.528933  13.33464
Mo  -17.189363  14.471265  11.789524
S1  -17.566022  18.049543  10.244408
S2  -17.566022  18.049543  13.33464
Mo  -19.021297  16.991875  11.789524
S1  -19.397956  20.570153  10.244408
S2  -19.397956  20.570153  13.33464
Mo  -20.853231  19.512485  11.789524
S1  -21.22989  23.090762  10.244408
S2  -21.22989  23.090762  13.33464
Mo  -22.685165  22.033095  11.789524
S1  -23.061824  25.611372  10.244408
S2  -23.061824  25.611372  13.33464
Mo  -24.517099  24.553704  11.789524
S1  -24.893758  28.131982  10.244408
S2  -24.893758  28.131982  13.33464
Mo  -26.349033  27.074314  11.789524
S1  -26.725692  30.652592  10.244408
S2  -26.725692  30.652592  13.33464
Mo  -28.180967  29.594924  11.789524
S1  -28.557626  33.173201  10.244408
S2  -28.557626  33.173201  13.33464
Mo  -30.012901  32.115534  11.789524
Mo  -3.098879  -0.326197  11.789524
S1  -3.475538  3.252081  10.244408
S2  -3.475538  3.252081  13.33464
Mo  -4.930813  2.194413  11.789524
S1  -5.307473  5.772691  10.244408
S2  -5.307473  5.772691  13.33464
Mo  -6.762747  4.715023  11.789524
S1  -7.139407  8.2933  10.244408
S2  -7.139407  8.2933  13.33464
Mo  -8.594681  7.235633  11.789524
S1  -8.971341  10.81391  10.244408
S2  -8.971341  10.81391  13.33464
Mo  -10.426615  9.756242  11.789524
S1  -10.803275  13.33452  10.244408
S2  -10.803275  13.33452  13.33464
Mo  -12.258549  12.276852  11.789524
S1  -12.635209  15.85513  10.244408
S2  -12.635209  15.85513  13.33464
Mo  -14.090484  14.797462  11.789524
S1  -14.467143  18.375739  10.244408
S2  -14.467143  18.375739  13.33464
Mo  -15.922418  17.318072  11.789524
S1  -16.299077  20.896349  10.244408
S2  -16.299077  20.896349  13.33464
Mo  -17.754352  19.838681  11.789524
S1  -18.131011  23.416959  10.244408
S2  -18.131011  23.416959  13.33464
Mo  -19.586286  22.359291  11.789524
S1  -19.962945  25.937569  10.244408
S2  -19.962945  25.937569  13.33464
Mo  -21.41822  24.879901  11.789524
S1  -21.794879  28.458178  10.244408
S2  -21.794879  28.458178  13.33464
Mo  -23.250154  27.400511  11.789524
S1  -23.626813  30.978788  10.244408
S2  -23.626813  30.978788  13.33464
Mo  -25.082088  29.92112  11.789524
S1  -25.458747  33.499398  10.244408
S2  -25.458747  33.499398  13.33464
Mo  -26.914022  32.44173  11.789524
S1  -27.290681  36.020008  10.244408
S2  -27.290681  36.020008  13.33464
Mo  -28.745956  34.96234  11.789524
S1  -29.122615  38.540617  10.244408
S2  -29.122615  38.540617  13.33464
Mo  -3.663868  5.04122  11.789524
S1  -4.040527  8.619497  10.244408
S2  -4.040527  8.619497  13.33464
Mo  -5.495802  7.561829  11.789524
S1  -5.872462  11.140107  10.244408
S2  -5.872462  11.140107  13.33464
Mo  -7.327736  10.082439  11.789524
S1  -7.704396  13.660716  10.244408
S2  -7.704396  13.660716  13.33464
Mo  -9.15967  12.603049  11.789524
S1  -9.53633  16.181326  10.244408
S2  -9.53633  16.181326  13.33464
Mo  -10.991604  15.123659  11.789524
S1  -11.368264  18.701936  10.244408
S2  -11.368264  18.701936  13.33464
Mo  -12.823538  17.644268  11.789524
S1  -13.200198  21.222546  10.244408
S2  -13.200198  21.222546  13.33464
Mo  -14.655473  20.164878  11.789524
S1  -15.032132  23.743155  10.244408
S2  -15.032132  23.743155  13.33464
Mo  -16.487407  22.685488  11.789524
S1  -16.864066  26.263765  10.244408
S2  -16.864066  26.263765  13.33464
Mo  -18.319341  25.206098  11.789524
S1  -18.696  28.784375  10.244408
S2  -18.696  28.784375  13.33464
Mo  -20.151275  27.726707  11.789524
S1  -20.527934  31.304985  10.244408
S2  -20.527934  31.304985  13.33464
Mo  -21.983209  30.247317  11.789524
S1  -22.359868  33.825594  10.244408
S2  -22.359868  33.825594  13.33464
Mo  -23.815143  32.767927  11.789524
S1  -24.191802  36.346204  10.244408
S2  -24.191802  36.346204  13.33464
Mo  -25.647077  35.288537  11.789524
S1  -26.023736  38.866814  10.244408
S2  -26.023736  38.866814  13.33464
Mo  -27.479011  37.809146  11.789524
Mo  -29.310945  40.329756  11.789524
Mo  -4.228857  10.408636  11.789524
S1  -4.605516  13.986913  10.244408
S2  -4.605516  13.986913  13.33464
Mo  -6.060791  12.929245  11.789524
S1  -6.437451  16.507523  10.244408
S2  -6.437451  16.507523  13.33464
Mo  -7.892725  15.449855  11.789524
S1  -8.269385  19.028132  10.244408
S2  -8.269385  19.028132  13.33464
Mo  -9.724659  17.970465  11.789524
S1  -10.101319  21.548742  10.244408
S2  -10.101319  21.548742  13.33464
Mo  -11.556593  20.491075  11.789524
S1  -11.933253  24.069352  10.244408
S2  -11.933253  24.069352  13.33464
Mo  -13.388527  23.011684  11.789524
S1  -13.765187  26.589962  10.244408
S2  -13.765187  26.589962  13.33464
Mo  -15.220462  25.532294  11.789524
S1  -15.597121  29.110571  10.244408
S2  -15.597121  29.110571  13.33464
Mo  -17.052396  28.052904  11.789524
S1  -17.429055  31.631181  10.244408
S2  -17.429055  31.631181  13.33464
Mo  -18.88433  30.573514  11.789524
S1  -19.260989  34.151791  10.244408
S2  -19.260989  34.151791  13.33464
Mo  -20.716264  33.094123  11.789524
Mo  -22.548198  35.614733  11.789524
Mo  -24.380132  38.135343  11.789524
Mo  -4.793846  15.776052  11.789524
S1  -5.170505  19.354329  10.244408
S2  -5.170505  19.354329  13.33464
Mo  -6.62578  18.296661  11.789524
S1  -7.00244  21.874939  10.244408
S2  -7.00244  21.874939  13.33464
Mo  -8.457714  20.817271  11.789524
S1  -8.834374  24.395548  10.244408
S2  -8.834374  24.395548  13.33464
Mo  -10.289648  23.337881  11.789524
S1  -10.666308  26.916158  10.244408
S2  -10.666308  26.916158  13.33464
Mo  -12.121582  25.858491  11.789524
S1  -12.498242  29.436768  10.244408
S2  -12.498242  29.436768  13.33464
Mo  -13.953516  28.3791  11.789524
S1  -14.330176  31.957378  10.244408
S2  -14.330176  31.957378  13.33464
Mo  -15.785451  30.89971  11.789524
Mo  -17.617385  33.42032  11.789524
S1  -3.90356  22.201135  10.244408
S2  -3.90356  22.201135  13.33464
Mo  -5.358835  21.143468  11.789524
S1  -5.735494  24.721745  10.244408
S2  -5.735494  24.721745  13.33464
Mo  -7.190769  23.664077  11.789524
S1  -7.567429  27.242355  10.244408
S2  -7.567429  27.242355  13.33464
Mo  -9.022703  26.184687  11.789524
S1  -9.399363  29.762965  10.244408
S2  -9.399363  29.762965  13.33464
Mo  -10.854637  28.705297  11.789524
Mo  -12.686571  31.225907  11.789524
Mo  -4.09189  23.990274  11.789524
S1  -4.468549  27.568551  10.244408
S2  -4.468549  27.568551  13.33464
Mo  -5.923824  26.510884  11.789524
Mo  -7.755758  29.031493  11.789524

K_POINTS {GAMMA}