&CONTROL
  calculation  = "scf"
  prefix       = "lego"
  pseudo_dir   = "."
  outdir       = "."
  verbosity="high"
/
&SYSTEM
  ibrav     = 0
  celldm(1) = 5.888386
  nat       = 762
  ntyp      = 1
  vdw_corr = "grimme-d2"
  ecutwfc   = 60
  ecutrho = 600
/
&ELECTRONS
  conv_thr    = 1.D-8
  mixing_beta = 0.3D0
/
&IONS
 ion_dynamics="bfgs"
/

CELL_PARAMETERS {alat}
-0.5	11.25833	0.0
-10.0	5.196152	0.0
0.0	0.0	10.0

ATOMIC_SPECIES
xxxxxxx
xxxxxxx
xxxxxx

ATOMIC_POSITIONS {Angstrom}
S1  -31.16  14.392187  4.344408
S2  -31.16  14.392187  7.43464
S1  -32.718  17.090723  4.344408
S2  -32.718  17.090723  7.43464
S1  -26.486  11.693652  4.344408
S2  -26.486  11.693652  7.43464
S1  -28.044  14.392187  4.344408
S2  -28.044  14.392187  7.43464
Mo  -29.602  13.492676  5.889524
S1  -29.602  17.090723  4.344408
S2  -29.602  17.090723  7.43464
Mo  -31.16  16.191211  5.889524
S1  -31.16  19.789258  4.344408
S2  -31.16  19.789258  7.43464
Mo  -32.718  18.889746  5.889524
S1  -32.718  22.487793  4.344408
S2  -32.718  22.487793  7.43464
S1  -21.812  8.995117  4.344408
S2  -21.812  8.995117  7.43464
S1  -23.37  11.693652  4.344408
S2  -23.37  11.693652  7.43464
Mo  -24.928  10.794141  5.889524
S1  -24.928  14.392187  4.344408
S2  -24.928  14.392187  7.43464
Mo  -26.486  13.492676  5.889524
S1  -26.486  17.090723  4.344408
S2  -26.486  17.090723  7.43464
Mo  -28.044  16.191211  5.889524
S1  -28.044  19.789258  4.344408
S2  -28.044  19.789258  7.43464
Mo  -29.602  18.889746  5.889524
S1  -29.602  22.487793  4.344408
S2  -29.602  22.487793  7.43464
Mo  -31.16  21.588281  5.889524
S1  -31.16  25.186328  4.344408
S2  -31.16  25.186328  7.43464
Mo  -32.718  24.286816  5.889524
S1  -32.718  27.884863  4.344408
S2  -32.718  27.884863  7.43464
Mo  -34.276  26.985351  5.889524
S1  -34.276  30.583398  4.344408
S2  -34.276  30.583398  7.43464
S1  -17.138  6.296582  4.344408
S2  -17.138  6.296582  7.43464
S1  -18.696  8.995117  4.344408
S2  -18.696  8.995117  7.43464
Mo  -20.254  8.095605  5.889524
S1  -20.254  11.693652  4.344408
S2  -20.254  11.693652  7.43464
Mo  -21.812  10.794141  5.889524
S1  -21.812  14.392187  4.344408
S2  -21.812  14.392187  7.43464
Mo  -23.37  13.492676  5.889524
S1  -23.37  17.090723  4.344408
S2  -23.37  17.090723  7.43464
Mo  -24.928  16.191211  5.889524
S1  -24.928  19.789258  4.344408
S2  -24.928  19.789258  7.43464
Mo  -26.486  18.889746  5.889524
S1  -26.486  22.487793  4.344408
S2  -26.486  22.487793  7.43464
Mo  -28.044  21.588281  5.889524
S1  -28.044  25.186328  4.344408
S2  -28.044  25.186328  7.43464
Mo  -29.602  24.286816  5.889524
S1  -29.602  27.884863  4.344408
S2  -29.602  27.884863  7.43464
Mo  -31.16  26.985351  5.889524
S1  -31.16  30.583398  4.344408
S2  -31.16  30.583398  7.43464
Mo  -32.718  29.683887  5.889524
S1  -32.718  33.281933  4.344408
S2  -32.718  33.281933  7.43464
Mo  -34.276  32.382422  5.889524
S1  -34.276  35.980469  4.344408
S2  -34.276  35.980469  7.43464
S1  -12.464  3.598047  4.344408
S2  -12.464  3.598047  7.43464
S1  -14.022  6.296582  4.344408
S2  -14.022  6.296582  7.43464
Mo  -15.58  5.39707  5.889524
S1  -15.58  8.995117  4.344408
S2  -15.58  8.995117  7.43464
Mo  -17.138  8.095605  5.889524
S1  -17.138  11.693652  4.344408
S2  -17.138  11.693652  7.43464
Mo  -18.696  10.794141  5.889524
S1  -18.696  14.392187  4.344408
S2  -18.696  14.392187  7.43464
Mo  -20.254  13.492676  5.889524
S1  -20.254  17.090723  4.344408
S2  -20.254  17.090723  7.43464
Mo  -21.812  16.191211  5.889524
S1  -21.812  19.789258  4.344408
S2  -21.812  19.789258  7.43464
Mo  -23.37  18.889746  5.889524
S1  -23.37  22.487793  4.344408
S2  -23.37  22.487793  7.43464
Mo  -24.928  21.588281  5.889524
S1  -24.928  25.186328  4.344408
S2  -24.928  25.186328  7.43464
Mo  -26.486  24.286816  5.889524
S1  -26.486  27.884863  4.344408
S2  -26.486  27.884863  7.43464
Mo  -28.044  26.985351  5.889524
S1  -28.044  30.583398  4.344408
S2  -28.044  30.583398  7.43464
Mo  -29.602  29.683887  5.889524
S1  -29.602  33.281933  4.344408
S2  -29.602  33.281933  7.43464
Mo  -31.16  32.382422  5.889524
S1  -31.16  35.980469  4.344408
S2  -31.16  35.980469  7.43464
Mo  -32.718  35.080957  5.889524
S1  -32.718  38.679004  4.344408
S2  -32.718  38.679004  7.43464
Mo  -34.276  37.779492  5.889524
S1  -34.276  41.377539  4.344408
S2  -34.276  41.377539  7.43464
S1  -9.348  3.598047  4.344408
S2  -9.348  3.598047  7.43464
Mo  -10.906  2.698535  5.889524
S1  -10.906  6.296582  4.344408
S2  -10.906  6.296582  7.43464
Mo  -12.464  5.39707  5.889524
S1  -12.464  8.995117  4.344408
S2  -12.464  8.995117  7.43464
Mo  -14.022  8.095605  5.889524
S1  -14.022  11.693652  4.344408
S2  -14.022  11.693652  7.43464
Mo  -15.58  10.794141  5.889524
S1  -15.58  14.392187  4.344408
S2  -15.58  14.392187  7.43464
Mo  -17.138  13.492676  5.889524
S1  -17.138  17.090723  4.344408
S2  -17.138  17.090723  7.43464
Mo  -18.696  16.191211  5.889524
S1  -18.696  19.789258  4.344408
S2  -18.696  19.789258  7.43464
Mo  -20.254  18.889746  5.889524
S1  -20.254  22.487793  4.344408
S2  -20.254  22.487793  7.43464
Mo  -21.812  21.588281  5.889524
S1  -21.812  25.186328  4.344408
S2  -21.812  25.186328  7.43464
Mo  -23.37  24.286816  5.889524
S1  -23.37  27.884863  4.344408
S2  -23.37  27.884863  7.43464
Mo  -24.928  26.985351  5.889524
S1  -24.928  30.583398  4.344408
S2  -24.928  30.583398  7.43464
Mo  -26.486  29.683887  5.889524
S1  -26.486  33.281933  4.344408
S2  -26.486  33.281933  7.43464
Mo  -28.044  32.382422  5.889524
S1  -28.044  35.980469  4.344408
S2  -28.044  35.980469  7.43464
Mo  -29.602  35.080957  5.889524
S1  -29.602  38.679004  4.344408
S2  -29.602  38.679004  7.43464
Mo  -31.16  37.779492  5.889524
S1  -31.16  41.377539  4.344408
S2  -31.16  41.377539  7.43464
Mo  -32.718  40.478027  5.889524
S1  -32.718  44.076074  4.344408
S2  -32.718  44.076074  7.43464
Mo  -34.276  43.176562  5.889524
S1  -34.276  46.774609  4.344408
S2  -34.276  46.774609  7.43464
S1  -4.674  0.899512  4.344408
S2  -4.674  0.899512  7.43464
S1  -6.232  3.598047  4.344408
S2  -6.232  3.598047  7.43464
Mo  -7.79  2.698535  5.889524
S1  -7.79  6.296582  4.344408
S2  -7.79  6.296582  7.43464
Mo  -9.348  5.39707  5.889524
S1  -9.348  8.995117  4.344408
S2  -9.348  8.995117  7.43464
Mo  -10.906  8.095605  5.889524
S1  -10.906  11.693652  4.344408
S2  -10.906  11.693652  7.43464
Mo  -12.464  10.794141  5.889524
S1  -12.464  14.392187  4.344408
S2  -12.464  14.392187  7.43464
Mo  -14.022  13.492676  5.889524
S1  -14.022  17.090723  4.344408
S2  -14.022  17.090723  7.43464
Mo  -15.58  16.191211  5.889524
S1  -15.58  19.789258  4.344408
S2  -15.58  19.789258  7.43464
Mo  -17.138  18.889746  5.889524
S1  -17.138  22.487793  4.344408
S2  -17.138  22.487793  7.43464
Mo  -18.696  21.588281  5.889524
S1  -18.696  25.186328  4.344408
S2  -18.696  25.186328  7.43464
Mo  -20.254  24.286816  5.889524
S1  -20.254  27.884863  4.344408
S2  -20.254  27.884863  7.43464
Mo  -21.812  26.985351  5.889524
S1  -21.812  30.583398  4.344408
S2  -21.812  30.583398  7.43464
Mo  -23.37  29.683887  5.889524
S1  -23.37  33.281933  4.344408
S2  -23.37  33.281933  7.43464
Mo  -24.928  32.382422  5.889524
S1  -24.928  35.980469  4.344408
S2  -24.928  35.980469  7.43464
Mo  -26.486  35.080957  5.889524
S1  -26.486  38.679004  4.344408
S2  -26.486  38.679004  7.43464
Mo  -28.044  37.779492  5.889524
S1  -28.044  41.377539  4.344408
S2  -28.044  41.377539  7.43464
Mo  -29.602  40.478027  5.889524
S1  -29.602  44.076074  4.344408
S2  -29.602  44.076074  7.43464
Mo  -31.16  43.176562  5.889524
S1  -31.16  46.774609  4.344408
S2  -31.16  46.774609  7.43464
Mo  -32.718  45.875097  5.889524
Mo  -34.276  48.573633  5.889524
Mo  -3.116  0.0  5.889524
S1  -3.116  3.598047  4.344408
S2  -3.116  3.598047  7.43464
Mo  -4.674  2.698535  5.889524
S1  -4.674  6.296582  4.344408
S2  -4.674  6.296582  7.43464
Mo  -6.232  5.39707  5.889524
S1  -6.232  8.995117  4.344408
S2  -6.232  8.995117  7.43464
Mo  -7.79  8.095605  5.889524
S1  -7.79  11.693652  4.344408
S2  -7.79  11.693652  7.43464
Mo  -9.348  10.794141  5.889524
S1  -9.348  14.392187  4.344408
S2  -9.348  14.392187  7.43464
Mo  -10.906  13.492676  5.889524
S1  -10.906  17.090723  4.344408
S2  -10.906  17.090723  7.43464
Mo  -12.464  16.191211  5.889524
S1  -12.464  19.789258  4.344408
S2  -12.464  19.789258  7.43464
Mo  -14.022  18.889746  5.889524
S1  -14.022  22.487793  4.344408
S2  -14.022  22.487793  7.43464
Mo  -15.58  21.588281  5.889524
S1  -15.58  25.186328  4.344408
S2  -15.58  25.186328  7.43464
Mo  -17.138  24.286816  5.889524
S1  -17.138  27.884863  4.344408
S2  -17.138  27.884863  7.43464
Mo  -18.696  26.985351  5.889524
S1  -18.696  30.583398  4.344408
S2  -18.696  30.583398  7.43464
Mo  -20.254  29.683887  5.889524
S1  -20.254  33.281933  4.344408
S2  -20.254  33.281933  7.43464
Mo  -21.812  32.382422  5.889524
S1  -21.812  35.980469  4.344408
S2  -21.812  35.980469  7.43464
Mo  -23.37  35.080957  5.889524
S1  -23.37  38.679004  4.344408
S2  -23.37  38.679004  7.43464
Mo  -24.928  37.779492  5.889524
S1  -24.928  41.377539  4.344408
S2  -24.928  41.377539  7.43464
Mo  -26.486  40.478027  5.889524
S1  -26.486  44.076074  4.344408
S2  -26.486  44.076074  7.43464
Mo  -28.044  43.176562  5.889524
Mo  -29.602  45.875097  5.889524
Mo  -3.116  5.39707  5.889524
S1  -3.116  8.995117  4.344408
S2  -3.116  8.995117  7.43464
Mo  -4.674  8.095605  5.889524
S1  -4.674  11.693652  4.344408
S2  -4.674  11.693652  7.43464
Mo  -6.232  10.794141  5.889524
S1  -6.232  14.392187  4.344408
S2  -6.232  14.392187  7.43464
Mo  -7.79  13.492676  5.889524
S1  -7.79  17.090723  4.344408
S2  -7.79  17.090723  7.43464
Mo  -9.348  16.191211  5.889524
S1  -9.348  19.789258  4.344408
S2  -9.348  19.789258  7.43464
Mo  -10.906  18.889746  5.889524
S1  -10.906  22.487793  4.344408
S2  -10.906  22.487793  7.43464
Mo  -12.464  21.588281  5.889524
S1  -12.464  25.186328  4.344408
S2  -12.464  25.186328  7.43464
Mo  -14.022  24.286816  5.889524
S1  -14.022  27.884863  4.344408
S2  -14.022  27.884863  7.43464
Mo  -15.58  26.985351  5.889524
S1  -15.58  30.583398  4.344408
S2  -15.58  30.583398  7.43464
Mo  -17.138  29.683887  5.889524
S1  -17.138  33.281933  4.344408
S2  -17.138  33.281933  7.43464
Mo  -18.696  32.382422  5.889524
S1  -18.696  35.980469  4.344408
S2  -18.696  35.980469  7.43464
Mo  -20.254  35.080957  5.889524
S1  -20.254  38.679004  4.344408
S2  -20.254  38.679004  7.43464
Mo  -21.812  37.779492  5.889524
S1  -21.812  41.377539  4.344408
S2  -21.812  41.377539  7.43464
Mo  -23.37  40.478027  5.889524
Mo  -24.928  43.176562  5.889524
Mo  -4.674  13.492676  5.889524
S1  -4.674  17.090723  4.344408
S2  -4.674  17.090723  7.43464
Mo  -6.232  16.191211  5.889524
S1  -6.232  19.789258  4.344408
S2  -6.232  19.789258  7.43464
Mo  -7.79  18.889746  5.889524
S1  -7.79  22.487793  4.344408
S2  -7.79  22.487793  7.43464
Mo  -9.348  21.588281  5.889524
S1  -9.348  25.186328  4.344408
S2  -9.348  25.186328  7.43464
Mo  -10.906  24.286816  5.889524
S1  -10.906  27.884863  4.344408
S2  -10.906  27.884863  7.43464
Mo  -12.464  26.985351  5.889524
S1  -12.464  30.583398  4.344408
S2  -12.464  30.583398  7.43464
Mo  -14.022  29.683887  5.889524
S1  -14.022  33.281933  4.344408
S2  -14.022  33.281933  7.43464
Mo  -15.58  32.382422  5.889524
S1  -15.58  35.980469  4.344408
S2  -15.58  35.980469  7.43464
Mo  -17.138  35.080957  5.889524
S1  -17.138  38.679004  4.344408
S2  -17.138  38.679004  7.43464
Mo  -18.696  37.779492  5.889524
Mo  -20.254  40.478027  5.889524
Mo  -4.674  18.889746  5.889524
S1  -4.674  22.487793  4.344408
S2  -4.674  22.487793  7.43464
Mo  -6.232  21.588281  5.889524
S1  -6.232  25.186328  4.344408
S2  -6.232  25.186328  7.43464
Mo  -7.79  24.286816  5.889524
S1  -7.79  27.884863  4.344408
S2  -7.79  27.884863  7.43464
Mo  -9.348  26.985351  5.889524
S1  -9.348  30.583398  4.344408
S2  -9.348  30.583398  7.43464
Mo  -10.906  29.683887  5.889524
S1  -10.906  33.281933  4.344408
S2  -10.906  33.281933  7.43464
Mo  -12.464  32.382422  5.889524
S1  -12.464  35.980469  4.344408
S2  -12.464  35.980469  7.43464
Mo  -14.022  35.080957  5.889524
Mo  -15.58  37.779492  5.889524
Mo  -4.674  24.286816  5.889524
S1  -4.674  27.884863  4.344408
S2  -4.674  27.884863  7.43464
Mo  -6.232  26.985351  5.889524
S1  -6.232  30.583398  4.344408
S2  -6.232  30.583398  7.43464
Mo  -7.79  29.683887  5.889524
S1  -7.79  33.281933  4.344408
S2  -7.79  33.281933  7.43464
Mo  -9.348  32.382422  5.889524
S1  -9.348  35.980469  4.344408
S2  -9.348  35.980469  7.43464
Mo  -10.906  35.080957  5.889524
Mo  -4.674  29.683887  5.889524
S1  -4.674  33.281933  4.344408
S2  -4.674  33.281933  7.43464
Mo  -6.232  32.382422  5.889524
Mo  -7.79  35.080957  5.889524
S1  -31.000523  14.399264  10.244408
S2  -31.000523  14.399264  13.33464
S1  -32.79161  16.94906  10.244408
S2  -32.79161  16.94906  13.33464
S1  -26.105703  12.125696  10.244408
S2  -26.105703  12.125696  13.33464
S1  -27.89679  14.675492  10.244408
S2  -27.89679  14.675492  13.33464
Mo  -29.368916  13.641408  11.789524
S1  -29.687878  17.225289  10.244408
S2  -29.687878  17.225289  13.33464
Mo  -31.160003  16.191204  11.789524
S1  -31.478965  19.775086  10.244408
S2  -31.478965  19.775086  13.33464
Mo  -32.951091  18.741001  11.789524
S1  -33.270052  22.324882  10.244408
S2  -33.270052  22.324882  13.33464
S1  -19.419797  7.302331  10.244408
S2  -19.419797  7.302331  13.33464
S1  -21.210884  9.852128  10.244408
S2  -21.210884  9.852128  13.33464
Mo  -22.68301  8.818043  11.789524
S1  -23.001971  12.401924  10.244408
S2  -23.001971  12.401924  13.33464
Mo  -24.474097  11.36784  11.789524
S1  -24.793058  14.951721  10.244408
S2  -24.793058  14.951721  13.33464
Mo  -26.265184  13.917636  11.789524
S1  -26.584145  17.501518  10.244408
S2  -26.584145  17.501518  13.33464
Mo  -28.056271  16.467433  11.789524
S1  -28.375233  20.051314  10.244408
S2  -28.375233  20.051314  13.33464
Mo  -29.847358  19.01723  11.789524
S1  -30.16632  22.601111  10.244408
S2  -30.16632  22.601111  13.33464
Mo  -31.638445  21.567026  11.789524
S1  -31.957407  25.150907  10.244408
S2  -31.957407  25.150907  13.33464
Mo  -33.429533  24.116823  11.789524
S1  -33.748494  27.700704  10.244408
S2  -33.748494  27.700704  13.33464
S1  -14.524977  5.028763  10.244408
S2  -14.524977  5.028763  13.33464
S1  -16.316065  7.57856  10.244408
S2  -16.316065  7.57856  13.33464
Mo  -17.78819  6.544475  11.789524
S1  -18.107152  10.128356  10.244408
S2  -18.107152  10.128356  13.33464
Mo  -19.579278  9.094272  11.789524
S1  -19.898239  12.678153  10.244408
S2  -19.898239  12.678153  13.33464
Mo  -21.370365  11.644068  11.789524
S1  -21.689326  15.22795  10.244408
S2  -21.689326  15.22795  13.33464
Mo  -23.161452  14.193865  11.789524
S1  -23.480413  17.777746  10.244408
S2  -23.480413  17.777746  13.33464
Mo  -24.952539  16.743662  11.789524
S1  -25.2715  20.327543  10.244408
S2  -25.2715  20.327543  13.33464
Mo  -26.743626  19.293458  11.789524
S1  -27.062587  22.877339  10.244408
S2  -27.062587  22.877339  13.33464
Mo  -28.534713  21.843255  11.789524
S1  -28.853675  25.427136  10.244408
S2  -28.853675  25.427136  13.33464
Mo  -30.3258  24.393051  11.789524
S1  -30.644762  27.976933  10.244408
S2  -30.644762  27.976933  13.33464
Mo  -32.116888  26.942848  11.789524
S1  -32.435849  30.526729  10.244408
S2  -32.435849  30.526729  13.33464
Mo  -33.907975  29.492645  11.789524
S1  -34.226936  33.076526  10.244408
S2  -34.226936  33.076526  13.33464
S1  -9.630158  2.755195  10.244408
S2  -9.630158  2.755195  13.33464
S1  -11.421245  5.304992  10.244408
S2  -11.421245  5.304992  13.33464
Mo  -12.893371  4.270907  11.789524
S1  -13.212332  7.854788  10.244408
S2  -13.212332  7.854788  13.33464
Mo  -14.684458  6.820704  11.789524
S1  -15.00342  10.404585  10.244408
S2  -15.00342  10.404585  13.33464
Mo  -16.475545  9.3705  11.789524
S1  -16.794507  12.954382  10.244408
S2  -16.794507  12.954382  13.33464
Mo  -18.266632  11.920297  11.789524
S1  -18.585594  15.504178  10.244408
S2  -18.585594  15.504178  13.33464
Mo  -20.05772  14.470094  11.789524
S1  -20.376681  18.053975  10.244408
S2  -20.376681  18.053975  13.33464
Mo  -21.848807  17.01989  11.789524
S1  -22.167768  20.603772  10.244408
S2  -22.167768  20.603772  13.33464
Mo  -23.639894  19.569687  11.789524
S1  -23.958855  23.153568  10.244408
S2  -23.958855  23.153568  13.33464
Mo  -25.430981  22.119484  11.789524
S1  -25.749942  25.703365  10.244408
S2  -25.749942  25.703365  13.33464
Mo  -27.222068  24.66928  11.789524
S1  -27.54103  28.253161  10.244408
S2  -27.54103  28.253161  13.33464
Mo  -29.013155  27.219077  11.789524
S1  -29.332117  30.802958  10.244408
S2  -29.332117  30.802958  13.33464
Mo  -30.804242  29.768873  11.789524
S1  -31.123204  33.352755  10.244408
S2  -31.123204  33.352755  13.33464
Mo  -32.59533  32.31867  11.789524
S1  -32.914291  35.902551  10.244408
S2  -32.914291  35.902551  13.33464
Mo  -34.386417  34.868467  11.789524
S1  -34.705378  38.452348  10.244408
S2  -34.705378  38.452348  13.33464
S1  -4.735339  0.481627  10.244408
S2  -4.735339  0.481627  13.33464
S1  -6.526426  3.031424  10.244408
S2  -6.526426  3.031424  13.33464
Mo  -7.998552  1.997339  11.789524
S1  -8.317513  5.581221  10.244408
S2  -8.317513  5.581221  13.33464
Mo  -9.789639  4.547136  11.789524
S1  -10.1086  8.131017  10.244408
S2  -10.1086  8.131017  13.33464
Mo  -11.580726  7.096933  11.789524
S1  -11.899687  10.680814  10.244408
S2  -11.899687  10.680814  13.33464
Mo  -13.371813  9.646729  11.789524
S1  -13.690774  13.23061  10.244408
S2  -13.690774  13.23061  13.33464
Mo  -15.1629  12.196526  11.789524
S1  -15.481862  15.780407  10.244408
S2  -15.481862  15.780407  13.33464
Mo  -16.953987  14.746322  11.789524
S1  -17.272949  18.330204  10.244408
S2  -17.272949  18.330204  13.33464
Mo  -18.745074  17.296119  11.789524
S1  -19.064036  20.88  10.244408
S2  -19.064036  20.88  13.33464
Mo  -20.536162  19.845916  11.789524
S1  -20.855123  23.429797  10.244408
S2  -20.855123  23.429797  13.33464
Mo  -22.327249  22.395712  11.789524
S1  -22.64621  25.979593  10.244408
S2  -22.64621  25.979593  13.33464
Mo  -24.118336  24.945509  11.789524
S1  -24.437297  28.52939  10.244408
S2  -24.437297  28.52939  13.33464
Mo  -25.909423  27.495305  11.789524
S1  -26.228384  31.079187  10.244408
S2  -26.228384  31.079187  13.33464
Mo  -27.70051  30.045102  11.789524
S1  -28.019472  33.628983  10.244408
S2  -28.019472  33.628983  13.33464
Mo  -29.491597  32.594899  11.789524
S1  -29.810559  36.17878  10.244408
S2  -29.810559  36.17878  13.33464
Mo  -31.282685  35.144695  11.789524
S1  -31.601646  38.728576  10.244408
S2  -31.601646  38.728576  13.33464
Mo  -33.073772  37.694492  11.789524
S1  -33.392733  41.278373  10.244408
S2  -33.392733  41.278373  13.33464
Mo  -34.864859  40.244288  11.789524
Mo  -3.103732  -0.276229  11.789524
S1  -3.422694  3.307653  10.244408
S2  -3.422694  3.307653  13.33464
Mo  -4.894819  2.273568  11.789524
S1  -5.213781  5.857449  10.244408
S2  -5.213781  5.857449  13.33464
Mo  -6.685907  4.823365  11.789524
S1  -7.004868  8.407246  10.244408
S2  -7.004868  8.407246  13.33464
Mo  -8.476994  7.373161  11.789524
S1  -8.795955  10.957042  10.244408
S2  -8.795955  10.957042  13.33464
Mo  -10.268081  9.922958  11.789524
S1  -10.587042  13.506839  10.244408
S2  -10.587042  13.506839  13.33464
Mo  -12.059168  12.472754  11.789524
S1  -12.378129  16.056636  10.244408
S2  -12.378129  16.056636  13.33464
Mo  -13.850255  15.022551  11.789524
S1  -14.169217  18.606432  10.244408
S2  -14.169217  18.606432  13.33464
Mo  -15.641342  17.572348  11.789524
S1  -15.960304  21.156229  10.244408
S2  -15.960304  21.156229  13.33464
Mo  -17.432429  20.122144  11.789524
S1  -17.751391  23.706025  10.244408
S2  -17.751391  23.706025  13.33464
Mo  -19.223517  22.671941  11.789524
S1  -19.542478  26.255822  10.244408
S2  -19.542478  26.255822  13.33464
Mo  -21.014604  25.221737  11.789524
S1  -21.333565  28.805619  10.244408
S2  -21.333565  28.805619  13.33464
Mo  -22.805691  27.771534  11.789524
S1  -23.124652  31.355415  10.244408
S2  -23.124652  31.355415  13.33464
Mo  -24.596778  30.321331  11.789524
S1  -24.915739  33.905212  10.244408
S2  -24.915739  33.905212  13.33464
Mo  -26.387865  32.871127  11.789524
S1  -26.706827  36.455009  10.244408
S2  -26.706827  36.455009  13.33464
Mo  -28.178952  35.420924  11.789524
S1  -28.497914  39.004805  10.244408
S2  -28.497914  39.004805  13.33464
Mo  -29.970039  37.970721  11.789524
S1  -30.289001  41.554602  10.244408
S2  -30.289001  41.554602  13.33464
Mo  -31.761127  40.520517  11.789524
S1  -32.080088  44.104398  10.244408
S2  -32.080088  44.104398  13.33464
Mo  -33.552214  43.070314  11.789524
S1  -33.871175  46.654195  10.244408
S2  -33.871175  46.654195  13.33464
Mo  -3.582174  5.099593  11.789524
S1  -3.901136  8.683474  10.244408
S2  -3.901136  8.683474  13.33464
Mo  -5.373261  7.64939  11.789524
S1  -5.692223  11.233271  10.244408
S2  -5.692223  11.233271  13.33464
Mo  -7.164349  10.199186  11.789524
S1  -7.48331  13.783068  10.244408
S2  -7.48331  13.783068  13.33464
Mo  -8.955436  12.748983  11.789524
S1  -9.274397  16.332864  10.244408
S2  -9.274397  16.332864  13.33464
Mo  -10.746523  15.29878  11.789524
S1  -11.065484  18.882661  10.244408
S2  -11.065484  18.882661  13.33464
Mo  -12.53761  17.848576  11.789524
S1  -12.856571  21.432458  10.244408
S2  -12.856571  21.432458  13.33464
Mo  -14.328697  20.398373  11.789524
S1  -14.647659  23.982254  10.244408
S2  -14.647659  23.982254  13.33464
Mo  -16.119784  22.948169  11.789524
S1  -16.438746  26.532051  10.244408
S2  -16.438746  26.532051  13.33464
Mo  -17.910871  25.497966  11.789524
S1  -18.229833  29.081847  10.244408
S2  -18.229833  29.081847  13.33464
Mo  -19.701959  28.047763  11.789524
S1  -20.02092  31.631644  10.244408
S2  -20.02092  31.631644  13.33464
Mo  -21.493046  30.597559  11.789524
S1  -21.812007  34.181441  10.244408
S2  -21.812007  34.181441  13.33464
Mo  -23.284133  33.147356  11.789524
S1  -23.603094  36.731237  10.244408
S2  -23.603094  36.731237  13.33464
Mo  -25.07522  35.697153  11.789524
S1  -25.394181  39.281034  10.244408
S2  -25.394181  39.281034  13.33464
Mo  -26.866307  38.246949  11.789524
S1  -27.185269  41.83083  10.244408
S2  -27.185269  41.83083  13.33464
Mo  -28.657394  40.796746  11.789524
S1  -28.976356  44.380627  10.244408
S2  -28.976356  44.380627  13.33464
Mo  -30.448482  43.346542  11.789524
S1  -30.767443  46.930424  10.244408
S2  -30.767443  46.930424  13.33464
Mo  -32.239569  45.896339  11.789524
Mo  -34.030656  48.446136  11.789524
Mo  -4.060616  10.475415  11.789524
S1  -4.379578  14.059296  10.244408
S2  -4.379578  14.059296  13.33464
Mo  -5.851704  13.025212  11.789524
S1  -6.170665  16.609093  10.244408
S2  -6.170665  16.609093  13.33464
Mo  -7.642791  15.575008  11.789524
S1  -7.961752  19.15889  10.244408
S2  -7.961752  19.15889  13.33464
Mo  -9.433878  18.124805  11.789524
S1  -9.752839  21.708686  10.244408
S2  -9.752839  21.708686  13.33464
Mo  -11.224965  20.674602  11.789524
S1  -11.543926  24.258483  10.244408
S2  -11.543926  24.258483  13.33464
Mo  -13.016052  23.224398  11.789524
S1  -13.335014  26.808279  10.244408
S2  -13.335014  26.808279  13.33464
Mo  -14.807139  25.774195  11.789524
S1  -15.126101  29.358076  10.244408
S2  -15.126101  29.358076  13.33464
Mo  -16.598226  28.323991  11.789524
S1  -16.917188  31.907873  10.244408
S2  -16.917188  31.907873  13.33464
Mo  -18.389314  30.873788  11.789524
S1  -18.708275  34.457669  10.244408
S2  -18.708275  34.457669  13.33464
Mo  -20.180401  33.423585  11.789524
S1  -20.499362  37.007466  10.244408
S2  -20.499362  37.007466  13.33464
Mo  -21.971488  35.973381  11.789524
S1  -22.290449  39.557262  10.244408
S2  -22.290449  39.557262  13.33464
Mo  -23.762575  38.523178  11.789524
S1  -24.081536  42.107059  10.244408
S2  -24.081536  42.107059  13.33464
Mo  -25.553662  41.072974  11.789524
S1  -25.872624  44.656856  10.244408
S2  -25.872624  44.656856  13.33464
Mo  -27.344749  43.622771  11.789524
Mo  -29.135836  46.172568  11.789524
Mo  -4.539058  15.851237  11.789524
S1  -4.85802  19.435118  10.244408
S2  -4.85802  19.435118  13.33464
Mo  -6.330146  18.401034  11.789524
S1  -6.649107  21.984915  10.244408
S2  -6.649107  21.984915  13.33464
Mo  -8.121233  20.95083  11.789524
S1  -8.440194  24.534711  10.244408
S2  -8.440194  24.534711  13.33464
Mo  -9.91232  23.500627  11.789524
S1  -10.231281  27.084508  10.244408
S2  -10.231281  27.084508  13.33464
Mo  -11.703407  26.050423  11.789524
S1  -12.022368  29.634305  10.244408
S2  -12.022368  29.634305  13.33464
Mo  -13.494494  28.60022  11.789524
S1  -13.813456  32.184101  10.244408
S2  -13.813456  32.184101  13.33464
Mo  -15.285581  31.150017  11.789524
S1  -15.604543  34.733898  10.244408
S2  -15.604543  34.733898  13.33464
Mo  -17.076668  33.699813  11.789524
S1  -17.39563  37.283695  10.244408
S2  -17.39563  37.283695  13.33464
Mo  -18.867756  36.24961  11.789524
S1  -19.186717  39.833491  10.244408
S2  -19.186717  39.833491  13.33464
Mo  -20.658843  38.799406  11.789524
Mo  -22.44993  41.349203  11.789524
Mo  -5.017501  21.227059  11.789524
S1  -5.336462  24.81094  10.244408
S2  -5.336462  24.81094  13.33464
Mo  -6.808588  23.776855  11.789524
S1  -7.127549  27.360737  10.244408
S2  -7.127549  27.360737  13.33464
Mo  -8.599675  26.326652  11.789524
S1  -8.918636  29.910533  10.244408
S2  -8.918636  29.910533  13.33464
Mo  -10.390762  28.876449  11.789524
S1  -10.709723  32.46033  10.244408
S2  -10.709723  32.46033  13.33464
Mo  -12.181849  31.426245  11.789524
S1  -12.500811  35.010127  10.244408
S2  -12.500811  35.010127  13.33464
Mo  -13.972936  33.976042  11.789524
S1  -14.291898  37.559923  10.244408
S2  -14.291898  37.559923  13.33464
Mo  -15.764023  36.525839  11.789524
Mo  -17.555111  39.075635  11.789524
S1  -4.023817  27.636965  10.244408
S2  -4.023817  27.636965  13.33464
Mo  -5.495943  26.602881  11.789524
S1  -5.814904  30.186762  10.244408
S2  -5.814904  30.186762  13.33464
Mo  -7.28703  29.152677  11.789524
S1  -7.605991  32.736559  10.244408
S2  -7.605991  32.736559  13.33464
Mo  -9.078117  31.702474  11.789524
S1  -9.397078  35.286355  10.244408
S2  -9.397078  35.286355  13.33464
Mo  -10.869204  34.252271  11.789524
Mo  -12.660291  36.802067  11.789524
Mo  -4.183298  29.428906  11.789524
S1  -4.502259  33.012787  10.244408
S2  -4.502259  33.012787  13.33464
Mo  -5.974385  31.978703  11.789524
Mo  -7.765472  34.528499  11.789524

K_POINTS {GAMMA}