&CONTROL
  calculation  = "scf"
  prefix       = "lego"
  pseudo_dir   = "."
  outdir       = "."
  verbosity="high"
/
&SYSTEM
  ibrav     = 0
  celldm(1) = 5.888386
  nat       = 546
  ntyp      = 1
  vdw_corr = "grimme-d2"
  ecutwfc   = 60
  ecutrho = 600
/
&ELECTRONS
  conv_thr    = 1.D-8
  mixing_beta = 0.3D0
/
&IONS
 ion_dynamics="bfgs"
/

CELL_PARAMETERS {alat}
-0.5	9.526279	0.0
-8.5	4.330127	0.0
0.0	0.0	10.0

ATOMIC_SPECIES
xxxxxxx
xxxxxxx
xxxxxx

ATOMIC_POSITIONS {Angstrom}
S1  -26.486  11.693652  4.344408
S2  -26.486  11.693652  7.43464
S1  -28.044  14.392187  4.344408
S2  -28.044  14.392187  7.43464
S1  -21.812  8.995117  4.344408
S2  -21.812  8.995117  7.43464
S1  -23.37  11.693652  4.344408
S2  -23.37  11.693652  7.43464
Mo  -24.928  10.794141  5.889524
S1  -24.928  14.392187  4.344408
S2  -24.928  14.392187  7.43464
Mo  -26.486  13.492676  5.889524
S1  -26.486  17.090723  4.344408
S2  -26.486  17.090723  7.43464
Mo  -28.044  16.191211  5.889524
S1  -28.044  19.789258  4.344408
S2  -28.044  19.789258  7.43464
S1  -29.602  22.487793  4.344408
S2  -29.602  22.487793  7.43464
S1  -17.138  6.296582  4.344408
S2  -17.138  6.296582  7.43464
S1  -18.696  8.995117  4.344408
S2  -18.696  8.995117  7.43464
Mo  -20.254  8.095605  5.889524
S1  -20.254  11.693652  4.344408
S2  -20.254  11.693652  7.43464
Mo  -21.812  10.794141  5.889524
S1  -21.812  14.392187  4.344408
S2  -21.812  14.392187  7.43464
Mo  -23.37  13.492676  5.889524
S1  -23.37  17.090723  4.344408
S2  -23.37  17.090723  7.43464
Mo  -24.928  16.191211  5.889524
S1  -24.928  19.789258  4.344408
S2  -24.928  19.789258  7.43464
Mo  -26.486  18.889746  5.889524
S1  -26.486  22.487793  4.344408
S2  -26.486  22.487793  7.43464
Mo  -28.044  21.588281  5.889524
S1  -28.044  25.186328  4.344408
S2  -28.044  25.186328  7.43464
Mo  -29.602  24.286816  5.889524
S1  -29.602  27.884863  4.344408
S2  -29.602  27.884863  7.43464
S1  -12.464  3.598047  4.344408
S2  -12.464  3.598047  7.43464
S1  -14.022  6.296582  4.344408
S2  -14.022  6.296582  7.43464
Mo  -15.58  5.39707  5.889524
S1  -15.58  8.995117  4.344408
S2  -15.58  8.995117  7.43464
Mo  -17.138  8.095605  5.889524
S1  -17.138  11.693652  4.344408
S2  -17.138  11.693652  7.43464
Mo  -18.696  10.794141  5.889524
S1  -18.696  14.392187  4.344408
S2  -18.696  14.392187  7.43464
Mo  -20.254  13.492676  5.889524
S1  -20.254  17.090723  4.344408
S2  -20.254  17.090723  7.43464
Mo  -21.812  16.191211  5.889524
S1  -21.812  19.789258  4.344408
S2  -21.812  19.789258  7.43464
Mo  -23.37  18.889746  5.889524
S1  -23.37  22.487793  4.344408
S2  -23.37  22.487793  7.43464
Mo  -24.928  21.588281  5.889524
S1  -24.928  25.186328  4.344408
S2  -24.928  25.186328  7.43464
Mo  -26.486  24.286816  5.889524
S1  -26.486  27.884863  4.344408
S2  -26.486  27.884863  7.43464
Mo  -28.044  26.985351  5.889524
S1  -28.044  30.583398  4.344408
S2  -28.044  30.583398  7.43464
Mo  -29.602  29.683887  5.889524
S1  -29.602  33.281933  4.344408
S2  -29.602  33.281933  7.43464
S1  -9.348  3.598047  4.344408
S2  -9.348  3.598047  7.43464
Mo  -10.906  2.698535  5.889524
S1  -10.906  6.296582  4.344408
S2  -10.906  6.296582  7.43464
Mo  -12.464  5.39707  5.889524
S1  -12.464  8.995117  4.344408
S2  -12.464  8.995117  7.43464
Mo  -14.022  8.095605  5.889524
S1  -14.022  11.693652  4.344408
S2  -14.022  11.693652  7.43464
Mo  -15.58  10.794141  5.889524
S1  -15.58  14.392187  4.344408
S2  -15.58  14.392187  7.43464
Mo  -17.138  13.492676  5.889524
S1  -17.138  17.090723  4.344408
S2  -17.138  17.090723  7.43464
Mo  -18.696  16.191211  5.889524
S1  -18.696  19.789258  4.344408
S2  -18.696  19.789258  7.43464
Mo  -20.254  18.889746  5.889524
S1  -20.254  22.487793  4.344408
S2  -20.254  22.487793  7.43464
Mo  -21.812  21.588281  5.889524
S1  -21.812  25.186328  4.344408
S2  -21.812  25.186328  7.43464
Mo  -23.37  24.286816  5.889524
S1  -23.37  27.884863  4.344408
S2  -23.37  27.884863  7.43464
Mo  -24.928  26.985351  5.889524
S1  -24.928  30.583398  4.344408
S2  -24.928  30.583398  7.43464
Mo  -26.486  29.683887  5.889524
S1  -26.486  33.281933  4.344408
S2  -26.486  33.281933  7.43464
Mo  -28.044  32.382422  5.889524
S1  -28.044  35.980469  4.344408
S2  -28.044  35.980469  7.43464
Mo  -29.602  35.080957  5.889524
S1  -29.602  38.679004  4.344408
S2  -29.602  38.679004  7.43464
S1  -4.674  0.899512  4.344408
S2  -4.674  0.899512  7.43464
S1  -6.232  3.598047  4.344408
S2  -6.232  3.598047  7.43464
Mo  -7.79  2.698535  5.889524
S1  -7.79  6.296582  4.344408
S2  -7.79  6.296582  7.43464
Mo  -9.348  5.39707  5.889524
S1  -9.348  8.995117  4.344408
S2  -9.348  8.995117  7.43464
Mo  -10.906  8.095605  5.889524
S1  -10.906  11.693652  4.344408
S2  -10.906  11.693652  7.43464
Mo  -12.464  10.794141  5.889524
S1  -12.464  14.392187  4.344408
S2  -12.464  14.392187  7.43464
Mo  -14.022  13.492676  5.889524
S1  -14.022  17.090723  4.344408
S2  -14.022  17.090723  7.43464
Mo  -15.58  16.191211  5.889524
S1  -15.58  19.789258  4.344408
S2  -15.58  19.789258  7.43464
Mo  -17.138  18.889746  5.889524
S1  -17.138  22.487793  4.344408
S2  -17.138  22.487793  7.43464
Mo  -18.696  21.588281  5.889524
S1  -18.696  25.186328  4.344408
S2  -18.696  25.186328  7.43464
Mo  -20.254  24.286816  5.889524
S1  -20.254  27.884863  4.344408
S2  -20.254  27.884863  7.43464
Mo  -21.812  26.985351  5.889524
S1  -21.812  30.583398  4.344408
S2  -21.812  30.583398  7.43464
Mo  -23.37  29.683887  5.889524
S1  -23.37  33.281933  4.344408
S2  -23.37  33.281933  7.43464
Mo  -24.928  32.382422  5.889524
S1  -24.928  35.980469  4.344408
S2  -24.928  35.980469  7.43464
Mo  -26.486  35.080957  5.889524
S1  -26.486  38.679004  4.344408
S2  -26.486  38.679004  7.43464
Mo  -28.044  37.779492  5.889524
Mo  -29.602  40.478027  5.889524
Mo  -3.116  0.0  5.889524
S1  -3.116  3.598047  4.344408
S2  -3.116  3.598047  7.43464
Mo  -4.674  2.698535  5.889524
S1  -4.674  6.296582  4.344408
S2  -4.674  6.296582  7.43464
Mo  -6.232  5.39707  5.889524
S1  -6.232  8.995117  4.344408
S2  -6.232  8.995117  7.43464
Mo  -7.79  8.095605  5.889524
S1  -7.79  11.693652  4.344408
S2  -7.79  11.693652  7.43464
Mo  -9.348  10.794141  5.889524
S1  -9.348  14.392187  4.344408
S2  -9.348  14.392187  7.43464
Mo  -10.906  13.492676  5.889524
S1  -10.906  17.090723  4.344408
S2  -10.906  17.090723  7.43464
Mo  -12.464  16.191211  5.889524
S1  -12.464  19.789258  4.344408
S2  -12.464  19.789258  7.43464
Mo  -14.022  18.889746  5.889524
S1  -14.022  22.487793  4.344408
S2  -14.022  22.487793  7.43464
Mo  -15.58  21.588281  5.889524
S1  -15.58  25.186328  4.344408
S2  -15.58  25.186328  7.43464
Mo  -17.138  24.286816  5.889524
S1  -17.138  27.884863  4.344408
S2  -17.138  27.884863  7.43464
Mo  -18.696  26.985351  5.889524
S1  -18.696  30.583398  4.344408
S2  -18.696  30.583398  7.43464
Mo  -20.254  29.683887  5.889524
S1  -20.254  33.281933  4.344408
S2  -20.254  33.281933  7.43464
Mo  -21.812  32.382422  5.889524
S1  -21.812  35.980469  4.344408
S2  -21.812  35.980469  7.43464
Mo  -23.37  35.080957  5.889524
Mo  -24.928  37.779492  5.889524
Mo  -3.116  5.39707  5.889524
Mo  -4.674  8.095605  5.889524
S1  -4.674  11.693652  4.344408
S2  -4.674  11.693652  7.43464
Mo  -6.232  10.794141  5.889524
S1  -6.232  14.392187  4.344408
S2  -6.232  14.392187  7.43464
Mo  -7.79  13.492676  5.889524
S1  -7.79  17.090723  4.344408
S2  -7.79  17.090723  7.43464
Mo  -9.348  16.191211  5.889524
S1  -9.348  19.789258  4.344408
S2  -9.348  19.789258  7.43464
Mo  -10.906  18.889746  5.889524
S1  -10.906  22.487793  4.344408
S2  -10.906  22.487793  7.43464
Mo  -12.464  21.588281  5.889524
S1  -12.464  25.186328  4.344408
S2  -12.464  25.186328  7.43464
Mo  -14.022  24.286816  5.889524
S1  -14.022  27.884863  4.344408
S2  -14.022  27.884863  7.43464
Mo  -15.58  26.985351  5.889524
S1  -15.58  30.583398  4.344408
S2  -15.58  30.583398  7.43464
Mo  -17.138  29.683887  5.889524
S1  -17.138  33.281933  4.344408
S2  -17.138  33.281933  7.43464
Mo  -18.696  32.382422  5.889524
Mo  -20.254  35.080957  5.889524
Mo  -4.674  13.492676  5.889524
S1  -4.674  17.090723  4.344408
S2  -4.674  17.090723  7.43464
Mo  -6.232  16.191211  5.889524
S1  -6.232  19.789258  4.344408
S2  -6.232  19.789258  7.43464
Mo  -7.79  18.889746  5.889524
S1  -7.79  22.487793  4.344408
S2  -7.79  22.487793  7.43464
Mo  -9.348  21.588281  5.889524
S1  -9.348  25.186328  4.344408
S2  -9.348  25.186328  7.43464
Mo  -10.906  24.286816  5.889524
S1  -10.906  27.884863  4.344408
S2  -10.906  27.884863  7.43464
Mo  -12.464  26.985351  5.889524
S1  -12.464  30.583398  4.344408
S2  -12.464  30.583398  7.43464
Mo  -14.022  29.683887  5.889524
Mo  -15.58  32.382422  5.889524
Mo  -4.674  18.889746  5.889524
S1  -4.674  22.487793  4.344408
S2  -4.674  22.487793  7.43464
Mo  -6.232  21.588281  5.889524
S1  -6.232  25.186328  4.344408
S2  -6.232  25.186328  7.43464
Mo  -7.79  24.286816  5.889524
S1  -7.79  27.884863  4.344408
S2  -7.79  27.884863  7.43464
Mo  -9.348  26.985351  5.889524
S1  -9.348  30.583398  4.344408
S2  -9.348  30.583398  7.43464
Mo  -10.906  29.683887  5.889524
Mo  -4.674  24.286816  5.889524
S1  -4.674  27.884863  4.344408
S2  -4.674  27.884863  7.43464
Mo  -6.232  26.985351  5.889524
Mo  -7.79  29.683887  5.889524
S1  -26.297676  11.703525  10.244408
S2  -26.297676  11.703525  13.33464
S1  -28.129611  14.224134  10.244408
S2  -28.129611  14.224134  13.33464
S1  -19.534926  6.988505  10.244408
S2  -19.534926  6.988505  13.33464
S1  -21.366861  9.509114  10.244408
S2  -21.366861  9.509114  13.33464
S1  -23.198797  12.029723  10.244408
S2  -23.198797  12.029723  13.33464
Mo  -24.654071  10.972055  11.789524
S1  -25.030732  14.550332  10.244408
S2  -25.030732  14.550332  13.33464
Mo  -26.486006  13.492664  11.789524
S1  -26.862667  17.070941  10.244408
S2  -26.862667  17.070941  13.33464
Mo  -28.317941  16.013272  11.789524
S1  -28.694602  19.59155  10.244408
S2  -28.694602  19.59155  13.33464
S1  -14.604112  4.794094  10.244408
S2  -14.604112  4.794094  13.33464
S1  -16.436047  7.314703  10.244408
S2  -16.436047  7.314703  13.33464
Mo  -17.891322  6.257035  11.789524
S1  -18.267983  9.835312  10.244408
S2  -18.267983  9.835312  13.33464
Mo  -19.723257  8.777644  11.789524
S1  -20.099918  12.355921  10.244408
S2  -20.099918  12.355921  13.33464
Mo  -21.555192  11.298253  11.789524
S1  -21.931853  14.87653  10.244408
S2  -21.931853  14.87653  13.33464
Mo  -23.387127  13.818862  11.789524
S1  -23.763788  17.397139  10.244408
S2  -23.763788  17.397139  13.33464
Mo  -25.219062  16.33947  11.789524
S1  -25.595723  19.917748  10.244408
S2  -25.595723  19.917748  13.33464
Mo  -27.050998  18.860079  11.789524
S1  -27.427659  22.438357  10.244408
S2  -27.427659  22.438357  13.33464
Mo  -28.882933  21.380688  11.789524
S1  -29.259594  24.958965  10.244408
S2  -29.259594  24.958965  13.33464
S1  -9.673298  2.599683  10.244408
S2  -9.673298  2.599683  13.33464
S1  -11.505233  5.120292  10.244408
S2  -11.505233  5.120292  13.33464
Mo  -12.960507  4.062624  11.789524
S1  -13.337168  7.640901  10.244408
S2  -13.337168  7.640901  13.33464
Mo  -14.792443  6.583233  11.789524
S1  -15.169104  10.16151  10.244408
S2  -15.169104  10.16151  13.33464
Mo  -16.624378  9.103842  11.789524
S1  -17.001039  12.682119  10.244408
S2  -17.001039  12.682119  13.33464
Mo  -18.456313  11.624451  11.789524
S1  -18.832974  15.202728  10.244408
S2  -18.832974  15.202728  13.33464
Mo  -20.288248  14.14506  11.789524
S1  -20.664909  17.723337  10.244408
S2  -20.664909  17.723337  13.33464
Mo  -22.120183  16.665668  11.789524
S1  -22.496844  20.243946  10.244408
S2  -22.496844  20.243946  13.33464
Mo  -23.952119  19.186277  11.789524
S1  -24.32878  22.764555  10.244408
S2  -24.32878  22.764555  13.33464
Mo  -25.784054  21.706886  11.789524
S1  -26.160715  25.285163  10.244408
S2  -26.160715  25.285163  13.33464
Mo  -27.615989  24.227495  11.789524
S1  -27.99265  27.805772  10.244408
S2  -27.99265  27.805772  13.33464
Mo  -29.447924  26.748104  11.789524
S1  -29.824585  30.326381  10.244408
S2  -29.824585  30.326381  13.33464
S1  -4.742484  0.405272  10.244408
S2  -4.742484  0.405272  13.33464
S1  -6.574419  2.925881  10.244408
S2  -6.574419  2.925881  13.33464
Mo  -8.029693  1.868213  11.789524
S1  -8.406354  5.44649  10.244408
S2  -8.406354  5.44649  13.33464
Mo  -9.861628  4.388822  11.789524
S1  -10.238289  7.967099  10.244408
S2  -10.238289  7.967099  13.33464
Mo  -11.693564  6.909431  11.789524
S1  -12.070225  10.487708  10.244408
S2  -12.070225  10.487708  13.33464
Mo  -13.525499  9.43004  11.789524
S1  -13.90216  13.008317  10.244408
S2  -13.90216  13.008317  13.33464
Mo  -15.357434  11.950649  11.789524
S1  -15.734095  15.528926  10.244408
S2  -15.734095  15.528926  13.33464
Mo  -17.189369  14.471258  11.789524
S1  -17.56603  18.049535  10.244408
S2  -17.56603  18.049535  13.33464
Mo  -19.021304  16.991866  11.789524
S1  -19.397965  20.570144  10.244408
S2  -19.397965  20.570144  13.33464
Mo  -20.85324  19.512475  11.789524
S1  -21.229901  23.090753  10.244408
S2  -21.229901  23.090753  13.33464
Mo  -22.685175  22.033084  11.789524
S1  -23.061836  25.611361  10.244408
S2  -23.061836  25.611361  13.33464
Mo  -24.51711  24.553693  11.789524
S1  -24.893771  28.13197  10.244408
S2  -24.893771  28.13197  13.33464
Mo  -26.349045  27.074302  11.789524
S1  -26.725706  30.652579  10.244408
S2  -26.725706  30.652579  13.33464
Mo  -28.180981  29.594911  11.789524
S1  -28.557642  33.173188  10.244408
S2  -28.557642  33.173188  13.33464
Mo  -30.012916  32.11552  11.789524
Mo  -3.098879  -0.326198  11.789524
S1  -3.47554  3.252079  10.244408
S2  -3.47554  3.252079  13.33464
Mo  -4.930814  2.194411  11.789524
S1  -5.307475  5.772688  10.244408
S2  -5.307475  5.772688  13.33464
Mo  -6.762749  4.71502  11.789524
S1  -7.13941  8.293297  10.244408
S2  -7.13941  8.293297  13.33464
Mo  -8.594685  7.235629  11.789524
S1  -8.971346  10.813906  10.244408
S2  -8.971346  10.813906  13.33464
Mo  -10.42662  9.756238  11.789524
S1  -10.803281  13.334515  10.244408
S2  -10.803281  13.334515  13.33464
Mo  -12.258555  12.276847  11.789524
S1  -12.635216  15.855124  10.244408
S2  -12.635216  15.855124  13.33464
Mo  -14.09049  14.797455  11.789524
S1  -14.467151  18.375733  10.244408
S2  -14.467151  18.375733  13.33464
Mo  -15.922426  17.318064  11.789524
S1  -16.299086  20.896342  10.244408
S2  -16.299086  20.896342  13.33464
Mo  -17.754361  19.838673  11.789524
S1  -18.131022  23.416951  10.244408
S2  -18.131022  23.416951  13.33464
Mo  -19.586296  22.359282  11.789524
S1  -19.962957  25.937559  10.244408
S2  -19.962957  25.937559  13.33464
Mo  -21.418231  24.879891  11.789524
S1  -21.794892  28.458168  10.244408
S2  -21.794892  28.458168  13.33464
Mo  -23.250166  27.4005  11.789524
S1  -23.626827  30.978777  10.244408
S2  -23.626827  30.978777  13.33464
Mo  -25.082102  29.921109  11.789524
S1  -25.458763  33.499386  10.244408
S2  -25.458763  33.499386  13.33464
Mo  -26.914037  32.441718  11.789524
S1  -27.290698  36.019995  10.244408
S2  -27.290698  36.019995  13.33464
Mo  -28.745972  34.962327  11.789524
S1  -29.122633  38.540604  10.244408
S2  -29.122633  38.540604  13.33464
Mo  -3.66387  5.041218  11.789524
S1  -4.040531  8.619495  10.244408
S2  -4.040531  8.619495  13.33464
Mo  -5.495806  7.561827  11.789524
S1  -5.872467  11.140104  10.244408
S2  -5.872467  11.140104  13.33464
Mo  -7.327741  10.082436  11.789524
S1  -7.704402  13.660713  10.244408
S2  -7.704402  13.660713  13.33464
Mo  -9.159676  12.603045  11.789524
S1  -9.536337  16.181322  10.244408
S2  -9.536337  16.181322  13.33464
Mo  -10.991611  15.123653  11.789524
S1  -11.368272  18.701931  10.244408
S2  -11.368272  18.701931  13.33464
Mo  -12.823547  17.644262  11.789524
S1  -13.200208  21.22254  10.244408
S2  -13.200208  21.22254  13.33464
Mo  -14.655482  20.164871  11.789524
S1  -15.032143  23.743148  10.244408
S2  -15.032143  23.743148  13.33464
Mo  -16.487417  22.68548  11.789524
S1  -16.864078  26.263757  10.244408
S2  -16.864078  26.263757  13.33464
Mo  -18.319352  25.206089  11.789524
S1  -18.696013  28.784366  10.244408
S2  -18.696013  28.784366  13.33464
Mo  -20.151287  27.726698  11.789524
S1  -20.527948  31.304975  10.244408
S2  -20.527948  31.304975  13.33464
Mo  -21.983223  30.247307  11.789524
S1  -22.359884  33.825584  10.244408
S2  -22.359884  33.825584  13.33464
Mo  -23.815158  32.767916  11.789524
S1  -24.191819  36.346193  10.244408
S2  -24.191819  36.346193  13.33464
Mo  -25.647093  35.288525  11.789524
S1  -26.023754  38.866802  10.244408
S2  -26.023754  38.866802  13.33464
Mo  -27.479028  37.809134  11.789524
Mo  -29.310964  40.329743  11.789524
Mo  -4.228862  10.408634  11.789524
S1  -4.605523  13.986911  10.244408
S2  -4.605523  13.986911  13.33464
Mo  -6.060797  12.929243  11.789524
S1  -6.437458  16.50752  10.244408
S2  -6.437458  16.50752  13.33464
Mo  -7.892732  15.449851  11.789524
S1  -8.269393  19.028129  10.244408
S2  -8.269393  19.028129  13.33464
Mo  -9.724668  17.97046  11.789524
S1  -10.101329  21.548738  10.244408
S2  -10.101329  21.548738  13.33464
Mo  -11.556603  20.491069  11.789524
S1  -11.933264  24.069346  10.244408
S2  -11.933264  24.069346  13.33464
Mo  -13.388538  23.011678  11.789524
S1  -13.765199  26.589955  10.244408
S2  -13.765199  26.589955  13.33464
Mo  -15.220473  25.532287  11.789524
S1  -15.597134  29.110564  10.244408
S2  -15.597134  29.110564  13.33464
Mo  -17.052408  28.052896  11.789524
S1  -17.429069  31.631173  10.244408
S2  -17.429069  31.631173  13.33464
Mo  -18.884344  30.573505  11.789524
S1  -19.261005  34.151782  10.244408
S2  -19.261005  34.151782  13.33464
Mo  -20.716279  33.094114  11.789524
Mo  -22.548214  35.614723  11.789524
Mo  -24.380149  38.135332  11.789524
Mo  -4.793853  15.776049  11.789524
S1  -5.170514  19.354327  10.244408
S2  -5.170514  19.354327  13.33464
Mo  -6.625789  18.296658  11.789524
S1  -7.00245  21.874936  10.244408
S2  -7.00245  21.874936  13.33464
Mo  -8.457724  20.817267  11.789524
S1  -8.834385  24.395544  10.244408
S2  -8.834385  24.395544  13.33464
Mo  -10.289659  23.337876  11.789524
S1  -10.66632  26.916153  10.244408
S2  -10.66632  26.916153  13.33464
Mo  -12.121594  25.858485  11.789524
S1  -12.498255  29.436762  10.244408
S2  -12.498255  29.436762  13.33464
Mo  -13.953529  28.379094  11.789524
S1  -14.33019  31.957371  10.244408
S2  -14.33019  31.957371  13.33464
Mo  -15.785465  30.899703  11.789524
Mo  -17.6174  33.420312  11.789524
S1  -3.903571  22.201134  10.244408
S2  -3.903571  22.201134  13.33464
Mo  -5.358845  21.143465  11.789524
S1  -5.735506  24.721742  10.244408
S2  -5.735506  24.721742  13.33464
Mo  -7.19078  23.664074  11.789524
S1  -7.567441  27.242351  10.244408
S2  -7.567441  27.242351  13.33464
Mo  -9.022715  26.184683  11.789524
S1  -9.399376  29.76296  10.244408
S2  -9.399376  29.76296  13.33464
Mo  -10.854651  28.705292  11.789524
Mo  -12.686586  31.225901  11.789524
Mo  -4.091901  23.990272  11.789524
S1  -4.468562  27.568549  10.244408
S2  -4.468562  27.568549  13.33464
Mo  -5.923836  26.510881  11.789524
Mo  -7.755772  29.03149  11.789524

K_POINTS {GAMMA}