&CONTROL
  calculation  = "scf"
  prefix       = "lego"
  pseudo_dir   = "."
  outdir       = "."
  verbosity="high"
/
&SYSTEM
  ibrav     = 0
  celldm(1) = 5.888399
  nat       = 366
  ntyp      = 1
  vdw_corr = "grimme-d2"
  ecutwfc   = 60
  ecutrho = 600
/
&ELECTRONS
  conv_thr    = 1.D-8
  mixing_beta = 0.3D0
/
&IONS
 ion_dynamics="bfgs"
/

CELL_PARAMETERS {alat}
-0.5	7.794229	0.0
-7.0	3.464102	0.0
0.0	0.0	10.0

ATOMIC_SPECIES
xxxxxxx
xxxxxxx
xxxxxx

ATOMIC_POSITIONS {Angstrom}
S1  -21.812  8.995117  4.344408
S2  -21.812  8.995117  7.43464
S1  -23.37  11.693652  4.344408
S2  -23.37  11.693652  7.43464
S1  -17.138  6.296582  4.344408
S2  -17.138  6.296582  7.43464
S1  -18.696  8.995117  4.344408
S2  -18.696  8.995117  7.43464
Mo  -20.254  8.095605  5.889524
S1  -20.254  11.693652  4.344408
S2  -20.254  11.693652  7.43464
Mo  -21.812  10.794141  5.889524
S1  -21.812  14.392187  4.344408
S2  -21.812  14.392187  7.43464
Mo  -23.37  13.492676  5.889524
S1  -23.37  17.090723  4.344408
S2  -23.37  17.090723  7.43464
S1  -24.928  19.789258  4.344408
S2  -24.928  19.789258  7.43464
S1  -12.464  3.598047  4.344408
S2  -12.464  3.598047  7.43464
S1  -14.022  6.296582  4.344408
S2  -14.022  6.296582  7.43464
Mo  -15.58  5.39707  5.889524
S1  -15.58  8.995117  4.344408
S2  -15.58  8.995117  7.43464
Mo  -17.138  8.095605  5.889524
S1  -17.138  11.693652  4.344408
S2  -17.138  11.693652  7.43464
Mo  -18.696  10.794141  5.889524
S1  -18.696  14.392187  4.344408
S2  -18.696  14.392187  7.43464
Mo  -20.254  13.492676  5.889524
S1  -20.254  17.090723  4.344408
S2  -20.254  17.090723  7.43464
Mo  -21.812  16.191211  5.889524
S1  -21.812  19.789258  4.344408
S2  -21.812  19.789258  7.43464
Mo  -23.37  18.889746  5.889524
S1  -23.37  22.487793  4.344408
S2  -23.37  22.487793  7.43464
Mo  -24.928  21.588281  5.889524
S1  -24.928  25.186328  4.344408
S2  -24.928  25.186328  7.43464
S1  -7.79  0.899512  4.344408
S2  -7.79  0.899512  7.43464
S1  -9.348  3.598047  4.344408
S2  -9.348  3.598047  7.43464
Mo  -10.906  2.698535  5.889524
S1  -10.906  6.296582  4.344408
S2  -10.906  6.296582  7.43464
Mo  -12.464  5.39707  5.889524
S1  -12.464  8.995117  4.344408
S2  -12.464  8.995117  7.43464
Mo  -14.022  8.095605  5.889524
S1  -14.022  11.693652  4.344408
S2  -14.022  11.693652  7.43464
Mo  -15.58  10.794141  5.889524
S1  -15.58  14.392187  4.344408
S2  -15.58  14.392187  7.43464
Mo  -17.138  13.492676  5.889524
S1  -17.138  17.090723  4.344408
S2  -17.138  17.090723  7.43464
Mo  -18.696  16.191211  5.889524
S1  -18.696  19.789258  4.344408
S2  -18.696  19.789258  7.43464
Mo  -20.254  18.889746  5.889524
S1  -20.254  22.487793  4.344408
S2  -20.254  22.487793  7.43464
Mo  -21.812  21.588281  5.889524
S1  -21.812  25.186328  4.344408
S2  -21.812  25.186328  7.43464
Mo  -23.37  24.286816  5.889524
S1  -23.37  27.884863  4.344408
S2  -23.37  27.884863  7.43464
Mo  -24.928  26.985351  5.889524
S1  -24.928  30.583398  4.344408
S2  -24.928  30.583398  7.43464
S1  -4.674  0.899512  4.344408
S2  -4.674  0.899512  7.43464
S1  -6.232  3.598047  4.344408
S2  -6.232  3.598047  7.43464
Mo  -7.79  2.698535  5.889524
S1  -7.79  6.296582  4.344408
S2  -7.79  6.296582  7.43464
Mo  -9.348  5.39707  5.889524
S1  -9.348  8.995117  4.344408
S2  -9.348  8.995117  7.43464
Mo  -10.906  8.095605  5.889524
S1  -10.906  11.693652  4.344408
S2  -10.906  11.693652  7.43464
Mo  -12.464  10.794141  5.889524
S1  -12.464  14.392187  4.344408
S2  -12.464  14.392187  7.43464
Mo  -14.022  13.492676  5.889524
S1  -14.022  17.090723  4.344408
S2  -14.022  17.090723  7.43464
Mo  -15.58  16.191211  5.889524
S1  -15.58  19.789258  4.344408
S2  -15.58  19.789258  7.43464
Mo  -17.138  18.889746  5.889524
S1  -17.138  22.487793  4.344408
S2  -17.138  22.487793  7.43464
Mo  -18.696  21.588281  5.889524
S1  -18.696  25.186328  4.344408
S2  -18.696  25.186328  7.43464
Mo  -20.254  24.286816  5.889524
S1  -20.254  27.884863  4.344408
S2  -20.254  27.884863  7.43464
Mo  -21.812  26.985351  5.889524
S1  -21.812  30.583398  4.344408
S2  -21.812  30.583398  7.43464
Mo  -23.37  29.683887  5.889524
Mo  -24.928  32.382422  5.889524
Mo  -3.116  0.0  5.889524
S1  -3.116  3.598047  4.344408
S2  -3.116  3.598047  7.43464
Mo  -4.674  2.698535  5.889524
S1  -4.674  6.296582  4.344408
S2  -4.674  6.296582  7.43464
Mo  -6.232  5.39707  5.889524
S1  -6.232  8.995117  4.344408
S2  -6.232  8.995117  7.43464
Mo  -7.79  8.095605  5.889524
S1  -7.79  11.693652  4.344408
S2  -7.79  11.693652  7.43464
Mo  -9.348  10.794141  5.889524
S1  -9.348  14.392187  4.344408
S2  -9.348  14.392187  7.43464
Mo  -10.906  13.492676  5.889524
S1  -10.906  17.090723  4.344408
S2  -10.906  17.090723  7.43464
Mo  -12.464  16.191211  5.889524
S1  -12.464  19.789258  4.344408
S2  -12.464  19.789258  7.43464
Mo  -14.022  18.889746  5.889524
S1  -14.022  22.487793  4.344408
S2  -14.022  22.487793  7.43464
Mo  -15.58  21.588281  5.889524
S1  -15.58  25.186328  4.344408
S2  -15.58  25.186328  7.43464
Mo  -17.138  24.286816  5.889524
S1  -17.138  27.884863  4.344408
S2  -17.138  27.884863  7.43464
Mo  -18.696  26.985351  5.889524
Mo  -20.254  29.683887  5.889524
Mo  -3.116  5.39707  5.889524
Mo  -4.674  8.095605  5.889524
S1  -4.674  11.693652  4.344408
S2  -4.674  11.693652  7.43464
Mo  -6.232  10.794141  5.889524
S1  -6.232  14.392187  4.344408
S2  -6.232  14.392187  7.43464
Mo  -7.79  13.492676  5.889524
S1  -7.79  17.090723  4.344408
S2  -7.79  17.090723  7.43464
Mo  -9.348  16.191211  5.889524
S1  -9.348  19.789258  4.344408
S2  -9.348  19.789258  7.43464
Mo  -10.906  18.889746  5.889524
S1  -10.906  22.487793  4.344408
S2  -10.906  22.487793  7.43464
Mo  -12.464  21.588281  5.889524
S1  -12.464  25.186328  4.344408
S2  -12.464  25.186328  7.43464
Mo  -14.022  24.286816  5.889524
Mo  -15.58  26.985351  5.889524
Mo  -4.674  13.492676  5.889524
S1  -4.674  17.090723  4.344408
S2  -4.674  17.090723  7.43464
Mo  -6.232  16.191211  5.889524
S1  -6.232  19.789258  4.344408
S2  -6.232  19.789258  7.43464
Mo  -7.79  18.889746  5.889524
S1  -7.79  22.487793  4.344408
S2  -7.79  22.487793  7.43464
Mo  -9.348  21.588281  5.889524
Mo  -10.906  24.286816  5.889524
Mo  -4.674  18.889746  5.889524
S1  -4.674  22.487793  4.344408
S2  -4.674  22.487793  7.43464
Mo  -6.232  21.588281  5.889524
Mo  -7.79  24.286816  5.889524
S1  -23.24229  9.702941  10.244408
S2  -23.24229  9.702941  13.33464
S1  -16.371768  5.146395  10.244408
S2  -16.371768  5.146395  13.33464
S1  -18.261799  7.62374  10.244408
S2  -18.261799  7.62374  13.33464
Mo  -19.921963  8.316807  11.789524
S1  -20.151831  10.101084  10.244408
S2  -20.151831  10.101084  13.33464
Mo  -21.811995  10.794151  11.789524
S1  -22.041863  12.578429  10.244408
S2  -22.041863  12.578429  13.33464
Mo  -23.702026  13.271496  11.789524
S1  -23.931894  15.055774  10.244408
S2  -23.931894  15.055774  13.33464
S1  -11.391277  3.067193  10.244408
S2  -11.391277  3.067193  13.33464
Mo  -13.051441  3.76026  11.789524
S1  -13.281309  5.544538  10.244408
S2  -13.281309  5.544538  13.33464
Mo  -14.941472  6.237605  11.789524
S1  -15.17134  8.021883  10.244408
S2  -15.17134  8.021883  13.33464
Mo  -16.831504  8.71495  11.789524
S1  -17.061372  10.499227  10.244408
S2  -17.061372  10.499227  13.33464
Mo  -18.721535  11.192294  11.789524
S1  -18.951403  12.976572  10.244408
S2  -18.951403  12.976572  13.33464
Mo  -20.611567  13.669639  11.789524
S1  -20.841435  15.453917  10.244408
S2  -20.841435  15.453917  13.33464
Mo  -22.501598  16.146984  11.789524
S1  -22.731466  17.931261  10.244408
S2  -22.731466  17.931261  13.33464
Mo  -24.39163  18.624328  11.789524
S1  -24.621498  20.408606  10.244408
S2  -24.621498  20.408606  13.33464
S1  -6.410786  0.987991  10.244408
S2  -6.410786  0.987991  13.33464
Mo  -8.07095  1.681059  11.789524
S1  -8.300818  3.465336  10.244408
S2  -8.300818  3.465336  13.33464
Mo  -9.960982  4.158403  11.789524
S1  -10.190849  5.942681  10.244408
S2  -10.190849  5.942681  13.33464
Mo  -11.851013  6.635748  11.789524
S1  -12.080881  8.420026  10.244408
S2  -12.080881  8.420026  13.33464
Mo  -13.741045  9.113093  11.789524
S1  -13.970913  10.89737  10.244408
S2  -13.970913  10.89737  13.33464
Mo  -15.631076  11.590437  11.789524
S1  -15.860944  13.374715  10.244408
S2  -15.860944  13.374715  13.33464
Mo  -17.521108  14.067782  11.789524
S1  -17.750976  15.85206  10.244408
S2  -17.750976  15.85206  13.33464
Mo  -19.411139  16.545127  11.789524
S1  -19.641007  18.329404  10.244408
S2  -19.641007  18.329404  13.33464
Mo  -21.301171  19.022471  11.789524
S1  -21.531039  20.806749  10.244408
S2  -21.531039  20.806749  13.33464
Mo  -23.191202  21.499816  11.789524
S1  -23.42107  23.284094  10.244408
S2  -23.42107  23.284094  13.33464
Mo  -25.081234  23.977161  11.789524
S1  -25.311102  25.761438  10.244408
S2  -25.311102  25.761438  13.33464
Mo  -3.090459  -0.398143  11.789524
S1  -3.320327  1.386134  10.244408
S2  -3.320327  1.386134  13.33464
Mo  -4.980491  2.079202  11.789524
S1  -5.210359  3.863479  10.244408
S2  -5.210359  3.863479  13.33464
Mo  -6.870522  4.556546  11.789524
S1  -7.10039  6.340824  10.244408
S2  -7.10039  6.340824  13.33464
Mo  -8.760554  7.033891  11.789524
S1  -8.990422  8.818169  10.244408
S2  -8.990422  8.818169  13.33464
Mo  -10.650585  9.511236  11.789524
S1  -10.880453  11.295513  10.244408
S2  -10.880453  11.295513  13.33464
Mo  -12.540617  11.98858  11.789524
S1  -12.770485  13.772858  10.244408
S2  -12.770485  13.772858  13.33464
Mo  -14.430649  14.465925  11.789524
S1  -14.660516  16.250203  10.244408
S2  -14.660516  16.250203  13.33464
Mo  -16.32068  16.94327  11.789524
S1  -16.550548  18.727547  10.244408
S2  -16.550548  18.727547  13.33464
Mo  -18.210712  19.420614  11.789524
S1  -18.44058  21.204892  10.244408
S2  -18.44058  21.204892  13.33464
Mo  -20.100743  21.897959  11.789524
S1  -20.330611  23.682237  10.244408
S2  -20.330611  23.682237  13.33464
Mo  -21.990775  24.375304  11.789524
S1  -22.220643  26.159581  10.244408
S2  -22.220643  26.159581  13.33464
Mo  -23.880806  26.852649  11.789524
S1  -24.110674  28.636926  10.244408
S2  -24.110674  28.636926  13.33464
Mo  -3.780063  4.954689  11.789524
S1  -4.009931  6.738967  10.244408
S2  -4.009931  6.738967  13.33464
Mo  -5.670095  7.432034  11.789524
S1  -5.899963  9.216311  10.244408
S2  -5.899963  9.216311  13.33464
Mo  -7.560126  9.909379  11.789524
S1  -7.789994  11.693656  10.244408
S2  -7.789994  11.693656  13.33464
Mo  -9.450158  12.386723  11.789524
S1  -9.680026  14.171001  10.244408
S2  -9.680026  14.171001  13.33464
Mo  -11.340189  14.864068  11.789524
S1  -11.570057  16.648346  10.244408
S2  -11.570057  16.648346  13.33464
Mo  -13.230221  17.341413  11.789524
S1  -13.460089  19.12569  10.244408
S2  -13.460089  19.12569  13.33464
Mo  -15.120252  19.818757  11.789524
S1  -15.35012  21.603035  10.244408
S2  -15.35012  21.603035  13.33464
Mo  -17.010284  22.296102  11.789524
S1  -17.240152  24.08038  10.244408
S2  -17.240152  24.08038  13.33464
Mo  -18.900316  24.773447  11.789524
S1  -19.130183  26.557724  10.244408
S2  -19.130183  26.557724  13.33464
Mo  -20.790347  27.250792  11.789524
S1  -21.020215  29.035069  10.244408
S2  -21.020215  29.035069  13.33464
Mo  -22.680379  29.728136  11.789524
S1  -22.910247  31.512414  10.244408
S2  -22.910247  31.512414  13.33464
Mo  -24.57041  32.205481  11.789524
Mo  -4.469667  10.307522  11.789524
S1  -4.699535  12.091799  10.244408
S2  -4.699535  12.091799  13.33464
Mo  -6.359699  12.784866  11.789524
S1  -6.589566  14.569144  10.244408
S2  -6.589566  14.569144  13.33464
Mo  -8.24973  15.262211  11.789524
S1  -8.479598  17.046489  10.244408
S2  -8.479598  17.046489  13.33464
Mo  -10.139762  17.739556  11.789524
S1  -10.36963  19.523833  10.244408
S2  -10.36963  19.523833  13.33464
Mo  -12.029793  20.2169  11.789524
S1  -12.259661  22.001178  10.244408
S2  -12.259661  22.001178  13.33464
Mo  -13.919825  22.694245  11.789524
S1  -14.149693  24.478523  10.244408
S2  -14.149693  24.478523  13.33464
Mo  -15.809856  25.17159  11.789524
S1  -16.039724  26.955867  10.244408
S2  -16.039724  26.955867  13.33464
Mo  -17.699888  27.648934  11.789524
Mo  -19.589919  30.126279  11.789524
Mo  -5.159271  15.660354  11.789524
S1  -5.389139  17.444632  10.244408
S2  -5.389139  17.444632  13.33464
Mo  -7.049302  18.137699  11.789524
S1  -7.27917  19.921976  10.244408
S2  -7.27917  19.921976  13.33464
Mo  -8.939334  20.615043  11.789524
S1  -9.169202  22.399321  10.244408
S2  -9.169202  22.399321  13.33464
Mo  -10.829366  23.092388  11.789524
S1  -11.059233  24.876666  10.244408
S2  -11.059233  24.876666  13.33464
Mo  -12.719397  25.569733  11.789524
Mo  -3.958843  18.535842  11.789524
S1  -4.188711  20.320119  10.244408
S2  -4.188711  20.320119  13.33464
Mo  -5.848875  21.013186  11.789524
S1  -6.078743  22.797464  10.244408
S2  -6.078743  22.797464  13.33464
Mo  -7.738906  23.490531  11.789524

K_POINTS {GAMMA}