&CONTROL
  calculation  = "scf"
  prefix       = "lego"
  pseudo_dir   = "."
  outdir       = "."
  verbosity="high"
/
&SYSTEM
  ibrav     = 0
  celldm(1) = 4.648726
  nat       = 76
  ntyp      = 1
  vdw_corr = "grimme-d2"
  ecutwfc   = 60
  ecutrho = 600
/
&ELECTRONS
  conv_thr    = 1.D-8
  mixing_beta = 0.3D0
/
&IONS
 ion_dynamics="bfgs"
/

CELL_PARAMETERS {alat}
-0.5	4.330127	0.0
-4.0	1.732051	0.0
0.0	0.0	10.0

ATOMIC_SPECIES
xxxxxxx
xxxxxxx
xxxxxx

ATOMIC_POSITIONS {Angstrom}
C  -9.84  2.840563  0.0
C  -11.07  4.970986  0.0
C  -12.3  7.101408  0.0
C  -6.15  0.710141  0.0
C  -7.38  2.840563  0.0
C  -8.61  2.130422  0.0
C  -8.61  4.970986  0.0
C  -9.84  4.260845  0.0
C  -9.84  7.101408  0.0
C  -11.07  6.391267  0.0
C  -11.07  9.231831  0.0
C  -12.3  8.52169  0.0
C  -12.3  11.362253  0.0
C  -3.69  0.710141  0.0
C  -4.92  0.0  0.0
C  -4.92  2.840563  0.0
C  -6.15  2.130422  0.0
C  -6.15  4.970986  0.0
C  -7.38  4.260845  0.0
C  -7.38  7.101408  0.0
C  -8.61  6.391267  0.0
C  -8.61  9.231831  0.0
C  -9.84  8.52169  0.0
C  -9.84  11.362253  0.0
C  -11.07  10.652112  0.0
C  -12.3  12.782535  0.0
C  -2.46  0.0  0.0
C  -3.69  2.130422  0.0
C  -3.69  4.970986  0.0
C  -4.92  4.260845  0.0
C  -4.92  7.101408  0.0
C  -6.15  6.391267  0.0
C  -6.15  9.231831  0.0
C  -7.38  8.52169  0.0
C  -8.61  10.652112  0.0
C  -3.69  6.391267  0.0
C  -3.69  9.231831  0.0
C  -4.92  8.52169  0.0
C  -7.833158  1.083899  3.3
C  -9.516316  2.877939  3.3
C  -11.199474  4.671979  3.3
C  -3.754737  -0.149503  3.3
C  -5.437895  1.644537  3.3
C  -6.473684  0.672765  3.3
C  -7.121053  3.438577  3.3
C  -8.156842  2.466805  3.3
C  -8.804211  5.232617  3.3
C  -9.84  4.260845  3.3
C  -10.487368  7.026657  3.3
C  -11.523158  6.054885  3.3
C  -12.170526  8.820697  3.3
C  -2.395263  -0.560637  3.3
C  -3.042632  2.205174  3.3
C  -4.078421  1.233402  3.3
C  -4.725789  3.999214  3.3
C  -5.761579  3.027442  3.3
C  -6.408947  5.793254  3.3
C  -7.444737  4.821482  3.3
C  -8.092105  7.587294  3.3
C  -9.127895  6.615522  3.3
C  -9.775263  9.381334  3.3
C  -10.811053  8.409562  3.3
C  -11.458421  11.175374  3.3
C  -12.494211  10.203602  3.3
C  -3.366316  3.58808  3.3
C  -4.013684  6.353892  3.3
C  -5.049474  5.38212  3.3
C  -5.696842  8.147932  3.3
C  -6.732632  7.17616  3.3
C  -7.38  9.941972  3.3
C  -8.415789  8.9702  3.3
C  -10.098947  10.76424  3.3
C  -11.782105  12.55828  3.3
C  -3.301579  8.708569  3.3
C  -4.337368  7.736797  3.3
C  -6.020526  9.530837  3.3

K_POINTS {GAMMA}